# GHz S RI R 50

1.000000000000000e-01 -9.5872320844035330e-01  2.4538014144997902e-01
1.198396793587174e-01 -9.4122808294033966e-01  2.9103906499750626e-01
1.396793587174349e-01 -9.2095781447189795e-01  3.3513521330814283e-01
1.595190380761523e-01 -8.9808773117781504e-01  3.7746826713883136e-01
1.793587174348698e-01 -8.7280962503310622e-01  4.1786142555412054e-01
1.991983967935872e-01 -8.4532814826021041e-01  4.5616268577018526e-01
2.190380761523046e-01 -8.1585718211760905e-01  4.9224551744624245e-01
2.388777555110221e-01 -7.8461628506766934e-01  5.2600896165411937e-01
2.587174348697395e-01 -7.5182731388246304e-01  5.5737720355385156e-01
2.785571142284569e-01 -7.1771129486449392e-01  5.8629868212045166e-01
2.983967935871744e-01 -6.8248560438485906e-01  6.1274480985142843e-01
3.182364729458918e-01 -6.4636149962982570e-01  6.3670838035257205e-01
3.380761523046092e-01 -6.0954202287765280e-01  6.5820174246582286e-01
3.579158316633266e-01 -5.7222028664851710e-01  6.7725481679508759e-01
3.777555110220441e-01 -5.3457813327396153e-01  6.9391302485420125e-01
3.975951903807615e-01 -4.9678515115994376e-01  7.0823519339761964e-01
4.174348697394790e-01 -4.5899802138610590e-01  7.2029148756367567e-01
4.372745490981964e-01 -4.2136016222471345e-01  7.3016141694992343e-01
4.571142284569139e-01 -3.8400163546805294e-01  7.3793194922830585e-01
4.769539078156313e-01 -3.4703927682236413e-01  7.4369575684804901e-01
4.967935871743487e-01 -3.1057701270852167e-01  7.4754961409348053e-01
5.166332665330662e-01 -2.7470632723868793e-01  7.4959295447220853e-01
5.364729458917836e-01 -2.3950684556038909e-01  7.4992659221413560e-01
5.563126252505010e-01 -2.0504700285278199e-01  7.4865160658845986e-01
5.761523046092184e-01 -1.7138477174536260e-01  7.4586838375578790e-01
5.959919839679358e-01 -1.3856842457657523e-01  7.4167580788283338e-01
6.158316633266533e-01 -1.0663731053739599e-01  7.3617059114722105e-01
6.356713426853707e-01 -7.5622631217901470e-02  7.2944673092463175e-01
6.555110220440882e-01 -4.5548201299078689e-02  7.2159508175150266e-01
6.753507014028056e-01 -1.6431184048722812e-02  7.1270302946958086e-01
6.951903807615231e-01  1.1717206141400083e-02  7.0285425516926336e-01
7.150300601202405e-01  3.8891039708315658e-02  6.9212857705505004e-01
7.348697394789580e-01  6.5089049998835330e-02  6.8060185907094861e-01
7.547094188376754e-01  9.0314055543575550e-02  6.6834597597313627e-01
7.745490981963928e-01  1.1457242730789434e-01  6.5542882546225423e-01
7.943887775551103e-01  1.3787360068456883e-01  6.4191437894160597e-01
8.142284569138277e-01  1.6022963120337785e-01  6.2786276341469760e-01
8.340681362725452e-01  1.8165479234043785e-01  6.1333036794987850e-01
8.539078156312626e-01  2.0216521338449750e-01  5.9836996900325135e-01
8.737474949899801e-01  2.2177855503024213e-01  5.8303086969180018e-01
8.935871743486975e-01  2.4051372019446621e-01  5.6735904884031318e-01
9.134268537074149e-01  2.5839059746734055e-01  5.5139731628545352e-01
9.332665330661324e-01  2.7542983459840026e-01  5.3518547150861417e-01
9.531062124248498e-01  2.9165263945878811e-01  5.1876046318828906e-01
9.729458917835673e-01  3.0708060600372072e-01  5.0215654771647389e-01
9.927855711422846e-01  3.2173556287061439e-01  4.8540544511678241e-01
1.012625250501002e+00  3.3563944237941962e-01  4.6853649113972157e-01
1.032464929859719e+00  3.4881416784492619e-01  4.5157678459835437e-01
1.052304609218437e+00  3.6128155726018613e-01  4.3455132925071305e-01
1.072144288577154e+00  3.7306324156112192e-01  4.1748316973902910e-01
1.091983967935872e+00  3.8418059583139508e-01  4.0039352126493849e-01
1.111823647294589e+00  3.9465468195109599e-01  3.8330189281887350e-01
1.131663326653306e+00  4.0450620133098697e-01  3.6622620389491750e-01
1.151503006012024e+00  4.1375545650463791e-01  3.4918289471324282e-01
1.171342685370741e+00  4.2242232047312062e-01  3.3218703004413619e-01
1.191182364729459e+00  4.3052621281054010e-01  3.1525239678350342e-01
1.211022044088176e+00  4.3808608164355062e-01  2.9839159547216643e-01
1.230861723446894e+00  4.4512039071416659e-01  2.8161612598248781e-01
1.250701402805611e+00  4.5164711082296410e-01  2.6493646761778017e-01
1.270541082164329e+00  4.5768371502950778e-01  2.4836215388427091e-01
1.290380761523046e+00  4.6324717705899499e-01  2.3190184220349486e-01
1.310220440881763e+00  4.6835397242916876e-01  2.1556337883609303e-01
1.330060120240481e+00  4.7302008187001682e-01  1.9935385928713328e-01
1.349899799599198e+00  4.7726099666115906e-01  1.8327968445907369e-01
1.369739478957916e+00  4.8109172555864321e-01  1.6734661281210769e-01
1.389579158316633e+00  4.8452680302459400e-01  1.5155980878342795e-01
1.409418837675351e+00  4.8758029851026785e-01  1.3592388770743796e-01
1.429258517034068e+00  4.9026582657599205e-01  1.2044295746851838e-01
1.449098196392786e+00  4.9259655766062094e-01  1.0512065710694592e-01
1.468937875751503e+00  4.9458522933890287e-01  8.9960192587241083e-02
1.488777555110220e+00  4.9624415792787235e-01  7.4964369926790037e-02
1.508617234468938e+00  4.9758525032338480e-01  6.0135625871209290e-02
1.528456913827655e+00  4.9862001596547628e-01  4.5476056291745622e-02
1.548296593186373e+00  4.9935957884664678e-01  3.0987442469106185e-02
1.568136272545090e+00  4.9981468949064412e-01  1.6671275417584553e-02
1.587975951903808e+00  4.9999573684110893e-01  2.5287783932298013e-03
1.607815631262525e+00  4.9991276000970680e-01 -1.1439072279858640e-02
1.627655310621243e+00  4.9957545984230434e-01 -2.5231527940218452e-02
1.647494989979960e+00  4.9899321026949534e-01 -3.8848049760515944e-02
1.667334669338677e+00  4.9817506941449330e-01 -5.2288292251881210e-02
1.687174348697395e+00  4.9712979043719502e-01 -6.5552088000864386e-02
1.707014028056112e+00  4.9586583209820922e-01 -7.8639433546064938e-02
1.726853707414830e+00  4.9439136903091979e-01 -9.1550476308279963e-02
1.746693386773547e+00  4.9271430171331104e-01 -1.0428550249439573e-01
1.766533066132265e+00  4.9084226613439774e-01 -1.1684492590117090e-01
1.786372745490982e+00  4.8878264315273973e-01 -1.2922927755060637e-01
1.806212424849700e+00  4.8654256754674924e-01 -1.4143919609373620e-01
1.826052104208417e+00  4.8412893675836016e-01 -1.5347541892446356e-01
1.845891783567134e+00  4.8154841933317977e-01 -1.6533877394950716e-01
1.865731462925852e+00  4.7880746306151994e-01 -1.7703017196464341e-01
1.885571142284569e+00  4.7591230282574903e-01 -1.8855059959124526e-01
1.905410821643287e+00  4.7286896816023671e-01 -1.9990111273065653e-01
1.925250501002004e+00  4.6968329053083352e-01 -2.1108283049720514e-01
1.945090180360721e+00  4.6636091034132704e-01 -2.2209692959369168e-01
1.964929859719439e+00  4.6290728367470457e-01 -2.3294463909597560e-01
1.984769539078156e+00  4.5932768877731717e-01 -2.4362723561586727e-01
2.004609218436874e+00  4.5562723229421503e-01 -2.5414603881391867e-01
2.024448897795591e+00  4.5181085526401699e-01 -2.6450240723590568e-01
2.044288577154309e+00  4.4788333888171078e-01 -2.7469773444882151e-01
2.064128256513026e+00  4.4384931003774042e-01 -2.8473344545408003e-01
2.083967935871744e+00  4.3971324664167227e-01 -2.9461099335734847e-01
2.103807615230461e+00  4.3547948273860587e-01 -3.0433185627602871e-01
2.123647294589178e+00  4.3115221342635573e-01 -3.1389753446686430e-01
2.143486973947896e+00  4.2673549958125551e-01 -3.2330954765751724e-01
2.163326653306613e+00  4.2223327240024183e-01 -3.3256943256718940e-01
2.183166332665331e+00  4.1764933776666663e-01 -3.4167874060253073e-01
2.203006012024048e+00  4.1298738044707423e-01 -3.5063903571611421e-01
2.222845691382766e+00  4.0825096812593459e-01 -3.5945189241575826e-01
2.242685370741483e+00  4.0344355528511072e-01 -3.6811889391384733e-01
2.262525050100200e+00  3.9856848693458230e-01 -3.7664163040665932e-01
2.282364729458918e+00  3.9362900220072178e-01 -3.8502169747444526e-01
2.302204408817635e+00  3.8862823777817646e-01 -3.9326069459372731e-01
2.322044088176352e+00  3.8356923125117270e-01 -4.0136022375392144e-01
2.341883767535070e+00  3.7845492428983085e-01 -4.0932188817098819e-01
2.361723446893787e+00  3.7328816572684620e-01 -4.1714729109136434e-01
2.381563126252505e+00  3.6807171451967163e-01 -4.2483803467993958e-01
2.401402805611222e+00  3.6280824260311462e-01 -4.3239571898630330e-01
2.421242484969940e+00  3.5750033763705841e-01 -4.3982194098391675e-01
2.441082164328657e+00  3.5215050565379785e-01 -4.4711829367727229e-01
2.460921843687375e+00  3.4676117360929587e-01 -4.5428636527245220e-01
2.480761523046092e+00  3.4133469184246545e-01 -4.6132773840684715e-01
2.500601202404809e+00  3.3587333644639833e-01 -4.6824398943410395e-01
2.520440881763527e+00  3.3037931155528510e-01 -4.7503668776065427e-01
2.540280561122244e+00  3.2485475155059884e-01 -4.8170739523044404e-01
2.560120240480962e+00  3.1930172318995126e-01 -4.8825766555472738e-01
2.579959919839679e+00  3.1372222766186925e-01 -4.9468904378401141e-01
2.599799599198397e+00  3.0811820256959377e-01 -5.0100306581944754e-01
2.619639278557114e+00  3.0249152384685341e-01 -5.0720125796115856e-01
2.639478957915832e+00  2.9684400760843171e-01 -5.1328513649116059e-01
2.659318637274549e+00  2.9117741193821223e-01 -5.1925620728871280e-01
2.679158316633266e+00  2.8549343861725668e-01 -5.2511596547607098e-01
2.698997995991984e+00  2.7979373479436404e-01 -5.3086589509276194e-01
2.718837675350701e+00  2.7407989460142285e-01 -5.3650746879662492e-01
2.738677354709419e+00  2.6835346071578392e-01 -5.4204214758999147e-01
2.758517034068136e+00  2.6261592587175575e-01 -5.4747138056947098e-01
2.778356713426854e+00  2.5686873432324070e-01 -5.5279660469792691e-01
2.798196392785571e+00  2.5111328325942839e-01 -5.5801924459731311e-01
2.818036072144289e+00  2.4535092417537618e-01 -5.6314071236112984e-01
2.837875751503006e+00  2.3958296419922037e-01 -5.6816240738533974e-01
2.857715430861723e+00  2.3381066737768061e-01 -5.7308571621666093e-01
2.877555110220441e+00  2.2803525592144733e-01 -5.7791201241721590e-01
2.897394789579158e+00  2.2225791141195977e-01 -5.8264265644459434e-01
2.917234468937876e+00  2.1647977597102427e-01 -5.8727899554642926e-01
2.937074148296593e+00  2.1070195339464759e-01 -5.9182236366865681e-01
2.956913827655311e+00  2.0492551025240160e-01 -5.9627408137667026e-01
2.976753507014028e+00  1.9915147695357688e-01 -6.0063545578863442e-01
2.996593186372746e+00  1.9338084878132134e-01 -6.0490778052026661e-01
3.016432865731463e+00  1.8761458689591573e-01 -6.0909233564043219e-01
3.036272545090180e+00  1.8185361930827532e-01 -6.1319038763694200e-01
3.056112224448898e+00  1.7609884182472810e-01 -6.1720318939197427e-01
3.075951903807615e+00  1.7035111896407173e-01 -6.2113198016657678e-01
3.095791583166333e+00  1.6461128484786289e-01 -6.2497798559373618e-01
3.115631262525050e+00  1.5888014406485909e-01 -6.2874241767952954e-01
3.135470941883768e+00  1.5315847251048761e-01 -6.3242647481190295e-01
3.155310621242485e+00  1.4744701820218339e-01 -6.3603134177664011e-01
3.175150300601203e+00  1.4174650207139888e-01 -6.3955818978011958e-01
3.194989979959920e+00  1.3605761873305516e-01 -6.4300817647846675e-01
3.214829659318637e+00  1.3038103723317604e-01 -6.4638244601274031e-01
3.234669338677355e+00  1.2471740177541303e-01 -6.4968212904980205e-01
3.254509018036072e+00  1.1906733242713745e-01 -6.5290834282854504e-01
3.274348697394790e+00  1.1343142580575676e-01 -6.5606219121116471e-01
3.294188376753507e+00  1.0781025574587491e-01 -6.5914476473918193e-01
3.314028056112225e+00  1.0220437394790655e-01 -6.6215714069393150e-01
3.333867735470942e+00  9.6614310608712520e-02 -6.6510038316125408e-01
3.353707414829660e+00  9.1040575034819826e-02 -6.6797554310013441e-01
3.373547094188377e+00  8.5483656238756339e-02 -6.7078365841504817e-01
3.393386773547094e+00  7.9944023519013210e-02 -6.7352575403178516e-01
3.413226452905812e+00  7.4422127024131507e-02 -6.7620284197653169e-01
3.433066132264529e+00  6.8918398301384909e-02 -6.7881592145800418e-01
3.452905811623247e+00  6.3433250830521509e-02 -6.8136597895243600e-01
3.472745490981964e+00  5.7967080543001301e-02 -6.8385398829122923e-01
3.492585170340682e+00  5.2520266327156485e-02 -6.8628091075109054e-01
3.512424849699399e+00  4.7093170519685215e-02 -6.8864769514648161e-01
3.532264529058116e+00  4.1686139383872924e-02 -6.9095527792421696e-01
3.552104208416834e+00  3.6299503574924466e-02 -6.9320458326005874e-01
3.571943887775551e+00  3.0933578592772376e-02 -6.9539652315715428e-01
3.591783567134269e+00  2.5588665222721893e-02 -6.9753199754617601e-01
3.611623246492986e+00  2.0265049964269755e-02 -6.9961189438703142e-01
3.631462925851704e+00  1.4963005448434562e-02 -7.0163708977200800e-01
3.651302605210421e+00  9.6827908439162131e-03 -7.0360844803023437e-01
3.671142284569138e+00  4.4246522523951398e-03 -7.0552682183333593e-01
3.690981963927856e+00 -8.1117690672642434e-04 -7.0739305230217597e-01
3.710821643286573e+00 -6.0244755218546546e-03 -7.0920796911457062e-01
3.730661322645290e+00 -1.1215034424721585e-02 -7.1097239061387840e-01
3.750501002004008e+00 -1.6382656035617966e-02 -7.1268712391836264e-01
3.770340681362725e+00 -2.1527154018079860e-02 -7.1435296503123846e-01
3.790180360721443e+00 -2.6648352942771101e-02 -7.1597069895130705e-01
3.810020040080160e+00 -3.1746087960317360e-02 -7.1754109978409908e-01
3.829859719438878e+00 -3.6820204482847715e-02 -7.1906493085344170e-01
3.849699398797595e+00 -4.1870557874015238e-02 -7.2054294481337211e-01
3.869539078156313e+00 -4.6897013147268393e-02 -7.2197588376032273e-01
3.889378757515030e+00 -5.1899444672154543e-02 -7.2336447934550885e-01
3.909218436873747e+00 -5.6877735888445247e-02 -7.2470945288744981e-01
3.929058116232465e+00 -6.1831779027873873e-02 -7.2601151548455811e-01
3.948897795591182e+00 -6.6761474843288898e-02 -7.2727136812773885e-01
3.968737474949900e+00 -7.1666732345024922e-02 -7.2848970181293504e-01
3.988577154308617e+00 -7.6547468544305691e-02 -7.2966719765356813e-01
4.008416833667335e+00 -8.1403608203493794e-02 -7.3080452699281961e-01
4.028256513026053e+00 -8.6235083593008494e-02 -7.3190235151569982e-01
4.048096192384770e+00 -9.1041834254741133e-02 -7.3296132336085973e-01
4.067935871743487e+00 -9.5823806771795750e-02 -7.3398208523209851e-01
4.087775551102204e+00 -1.0058095454439374e-01 -7.3496527050952232e-01
4.107615230460922e+00 -1.0531323757178297e-01 -7.3591150336031608e-01
4.127454909819639e+00 -1.1002062223999629e-01 -7.3682139884908482e-01
4.147294589178357e+00 -1.1470308111530678e-01 -7.3769556304773098e-01
4.167134268537074e+00 -1.1936059274323781e-01 -7.3853459314483150e-01
4.186973947895792e+00 -1.2399314145297843e-01 -7.3933907755448103e-01
4.206813627254509e+00 -1.2860071716707294e-01 -7.4010959602456905e-01
4.226653306613227e+00 -1.3318331521624205e-01 -7.4084671974446381e-01
4.246492985971944e+00 -1.3774093615920988e-01 -7.4155101145207092e-01
4.266332665330662e+00 -1.4227358560740536e-01 -7.4222302554024477e-01
4.286172344689379e+00 -1.4678127405441399e-01 -7.4286330816252466e-01
4.306012024048096e+00 -1.5126401671005951e-01 -7.4347239733817205e-01
4.325851703406814e+00 -1.5572183333899509e-01 -7.4405082305648962e-01
4.345691382765532e+00 -1.6015474810368988e-01 -7.4459910738040003e-01
4.365531062124249e+00 -1.6456278941170102e-01 -7.4511776454926293e-01
4.385370741482966e+00 -1.6894598976711644e-01 -7.4560730108091577e-01
4.405210420841684e+00 -1.7330438562606701e-01 -7.4606821587292194e-01
4.425050100200401e+00 -1.7763801725619968e-01 -7.4650100030300415e-01
4.444889779559118e+00 -1.8194692860001566e-01 -7.4690613832865804e-01
4.464729458917835e+00 -1.8623116714196994e-01 -7.4728410658592548e-01
4.484569138276553e+00 -1.9049078377923809e-01 -7.4763537448731698e-01
4.504408817635270e+00 -1.9472583269605806e-01 -7.4796040431887556e-01
4.524248496993988e+00 -1.9893637124155411e-01 -7.4825965133636563e-01
4.544088176352705e+00 -2.0312245981095131e-01 -7.4853356386058212e-01
4.563927855711423e+00 -2.0728416173010167e-01 -7.4878258337176884e-01
4.583767535070140e+00 -2.1142154314322764e-01 -7.4900714460314066e-01
4.603607214428858e+00 -2.1553467290380693e-01 -7.4920767563350044e-01
4.623446893787575e+00 -2.1962362246851663e-01 -7.4938459797894497e-01
4.643286573146293e+00 -2.2368846579415777e-01 -7.4953832668365583e-01
4.663126252505010e+00 -2.2772927923748282e-01 -7.4966927040977083e-01
4.682965931863728e+00 -2.3174614145785657e-01 -7.4977783152632849e-01
4.702805611222445e+00 -2.3573913332266902e-01 -7.4986440619728811e-01
4.722645290581163e+00 -2.3970833781543829e-01 -7.4992938446861712e-01
4.742484969939880e+00 -2.4365383994652970e-01 -7.4997315035444811e-01
4.762324649298598e+00 -2.4757572666642394e-01 -7.4999608192230172e-01
4.782164328657315e+00 -2.5147408678146888e-01 -7.4999855137737492e-01
4.802004008016032e+00 -2.5534901087205397e-01 -7.4998092514589354e-01
4.821843687374749e+00 -2.5920059121313793e-01 -7.4994356395753459e-01
4.841683366733467e+00 -2.6302892169707831e-01 -7.4988682292690767e-01
4.861523046092184e+00 -2.6683409775869155e-01 -7.4981105163411044e-01
4.881362725450902e+00 -2.7061621630250027e-01 -7.4971659420434911e-01
4.901202404809619e+00 -2.7437537563209458e-01 -7.4960378938662942e-01
4.921042084168337e+00 -2.7811167538156945e-01 -7.4947297063152407e-01
4.940881763527054e+00 -2.8182521644896869e-01 -7.4932446616801207e-01
4.960721442885772e+00 -2.8551610093169644e-01 -7.4915859907940030e-01
4.980561122244489e+00 -2.8918443206383271e-01 -7.4897568737832532e-01
5.000400801603207e+00 -2.9283031415531735e-01 -7.4877604408084319e-01
5.020240480961924e+00 -2.9645385253293793e-01 -7.4855997727960844e-01
5.040080160320642e+00 -3.0005515348308842e-01 -7.4832779021614881e-01
5.059919839679359e+00 -3.0363432419624120e-01 -7.4807978135223818e-01
5.079759519038077e+00 -3.0719147271309727e-01 -7.4781624444037520e-01
5.099599198396794e+00 -3.1072670787236140e-01 -7.4753746859337078e-01
5.119438877755512e+00 -3.1424013926010719e-01 -7.4724373835305025e-01
5.139278557114229e+00 -3.1773187716068402e-01 -7.4693533375807708e-01
5.159118236472946e+00 -3.2120203250912993e-01 -7.4661253041090103e-01
5.178957915831663e+00 -3.2465071684504815e-01 -7.4627559954384171e-01
5.198797595190381e+00 -3.2807804226790865e-01 -7.4592480808430728e-01
5.218637274549098e+00 -3.3148412139373740e-01 -7.4556041871916101e-01
5.238476953907816e+00 -3.3486906731315713e-01 -7.4518268995823755e-01
5.258316633266533e+00 -3.3823299355074327e-01 -7.4479187619701814e-01
5.278156312625251e+00 -3.4157601402565807e-01 -7.4438822777847069e-01
5.297995991983968e+00 -3.4489824301353261e-01 -7.4397199105406142e-01
5.317835671342686e+00 -3.4819979510956062e-01 -7.4354340844394584e-01
5.337675350701403e+00 -3.5148078519276998e-01 -7.4310271849634546e-01
5.357515030060121e+00 -3.5474132839144767e-01 -7.4265015594611905e-01
5.377354709418838e+00 -3.5798154004967758e-01 -7.4218595177253244e-01
5.397194388777556e+00 -3.6120153569496877e-01 -7.4171033325623870e-01
5.417034068136273e+00 -3.6440143100693889e-01 -7.4122352403547243e-01
5.436873747494991e+00 -3.6758134178703139e-01 -7.4072574416146864e-01
5.456713426853708e+00 -3.7074138392923073e-01 -7.4021721015311048e-01
5.476553106212426e+00 -3.7388167339175410e-01 -7.3969813505081838e-01
5.496392785571143e+00 -3.7700232616969087e-01 -7.3916872846968262e-01
5.516232464929860e+00 -3.8010345826856468e-01 -7.3862919665185189e-01
5.536072144288577e+00 -3.8318518567879017e-01 -7.3807974251818209e-01
5.555911823647295e+00 -3.8624762435100868e-01 -7.3752056571915769e-01
5.575751503006012e+00 -3.8929089017226443e-01 -7.3695186268508617e-01
5.595591182364730e+00 -3.9231509894301331e-01 -7.3637382667558227e-01
5.615430861723447e+00 -3.9532036635492940e-01 -7.3578664782834236e-01
5.635270541082165e+00 -3.9830680796949641e-01 -7.3519051320722228e-01
5.655110220440882e+00 -4.0127453919735456e-01 -7.3458560684962237e-01
5.674949899799600e+00 -4.0422367527838832e-01 -7.3397210981319050e-01
5.694789579158317e+00 -4.0715433126252942e-01 -7.3335020022184971e-01
5.714629258517035e+00 -4.1006662199126037e-01 -7.3272005331115864e-01
5.734468937875752e+00 -4.1296066207979371e-01 -7.3208184147301136e-01
5.754308617234470e+00 -4.1583656589991230e-01 -7.3143573429968833e-01
5.774148296593187e+00 -4.1869444756344887e-01 -7.3078189862725995e-01
5.793987975951904e+00 -4.2153442090639176e-01 -7.3012049857835726e-01
5.813827655310622e+00 -4.2435659947359100e-01 -7.2945169560431200e-01
5.833667334669339e+00 -4.2716109650405709e-01 -7.2877564852667798e-01
5.853507014028057e+00 -4.2994802491682987e-01 -7.2809251357813853e-01
5.873346693386774e+00 -4.3271749729740278e-01 -7.2740244444280877e-01
5.893186372745491e+00 -4.3546962588468630e-01 -7.2670559229594101e-01
5.913026052104208e+00 -4.3820452255849851e-01 -7.2600210584303926e-01
5.932865731462926e+00 -4.4092229882756012e-01 -7.2529213135839277e-01
5.952705410821643e+00 -4.4362306581798922e-01 -7.2457581272303218e-01
5.972545090180361e+00 -4.4630693426227508e-01 -7.2385329146212152e-01
5.992384769539078e+00 -4.4897401448871482e-01 -7.2312470678178664e-01
6.012224448897796e+00 -4.5162441641131129e-01 -7.2239019560539319e-01
6.032064128256513e+00 -4.5425824952010235e-01 -7.2164989260927892e-01
6.051903807615231e+00 -4.5687562287192518e-01 -7.2090393025794575e-01
6.071743486973948e+00 -4.5947664508158875e-01 -7.2015243883872404e-01
6.091583166332666e+00 -4.6206142431345509e-01 -7.1939554649590964e-01
6.111422845691383e+00 -4.6463006827340686e-01 -7.1863337926438742e-01
6.131262525050101e+00 -4.6718268420119641e-01 -7.1786606110274043e-01
6.151102204408818e+00 -4.6971937886316428e-01 -7.1709371392586141e-01
6.170941883767536e+00 -4.7224025854531254e-01 -7.1631645763706464e-01
6.190781563126253e+00 -4.7474542904672568e-01 -7.1553441015970942e-01
6.210621242484970e+00 -4.7723499567332961e-01 -7.1474768746834150e-01
6.230460921843687e+00 -4.7970906323197499e-01 -7.1395640361935875e-01
6.250300601202405e+00 -4.8216773602483781e-01 -7.1316067078120693e-01
6.270140280561122e+00 -4.8461111784412669e-01 -7.1236059926411510e-01
6.289979959919840e+00 -4.8703931196708933e-01 -7.1155629754937100e-01
6.309819639278557e+00 -4.8945242115130472e-01 -7.1074787231815084e-01
6.329659318637275e+00 -4.9185054763025882e-01 -7.0993542847990321e-01
6.349498997995992e+00 -4.9423379310918836e-01 -7.0911906920029888e-01
6.369338677354710e+00 -4.9660225876119019e-01 -7.0829889592874495e-01
6.389178356713427e+00 -4.9895604522358417e-01 -7.0747500842547983e-01
6.409018036072145e+00 -5.0129525259452157e-01 -7.0664750478824701e-01
6.428857715430862e+00 -5.0361998042983669e-01 -7.0581648147855625e-01
6.448697394789580e+00 -5.0593032774012736e-01 -7.0498203334753939e-01
6.468537074148297e+00 -5.0822639298805916e-01 -7.0414425366140454e-01
6.488376753507015e+00 -5.1050827408589072e-01 -7.0330323412649709e-01
6.508216432865732e+00 -5.1277606839320611e-01 -7.0245906491396992e-01
6.528056112224450e+00 -5.1502987271485245e-01 -7.0161183468407162e-01
6.547895791583167e+00 -5.1726978329907514e-01 -7.0076163061005659e-01
6.567735470941884e+00 -5.1949589583584399e-01 -6.9990853840172274e-01
6.587575150300601e+00 -5.2170830545536284e-01 -6.9905264232858411e-01
6.607414829659319e+00 -5.2390710672676000e-01 -6.9819402524267937e-01
6.627254509018036e+00 -5.2609239365695049e-01 -6.9733276860102844e-01
6.647094188376754e+00 -5.2826425968966584e-01 -6.9646895248773466e-01
6.666933867735471e+00 -5.3042279770464484e-01 -6.9560265563574430e-01
6.686773547094189e+00 -5.3256810001698218e-01 -6.9473395544826555e-01
6.706613226452906e+00 -5.3470025837662694e-01 -6.9386292801985161e-01
6.726452905811624e+00 -5.3681936396802776e-01 -6.9298964815715403e-01
6.746292585170341e+00 -5.3892550740991896e-01 -6.9211418939935099e-01
6.766132264529059e+00 -5.4101877875524296e-01 -6.9123662403825714e-01
6.785971943887776e+00 -5.4309926749120363e-01 -6.9035702313811509e-01
6.805811623246494e+00 -5.4516706253944880e-01 -6.8947545655507780e-01
6.825651302605211e+00 -5.4722225225637200e-01 -6.8859199295638729e-01
6.845490981963929e+00 -5.4926492443353725e-01 -6.8770669983924770e-01
6.865330661322646e+00 -5.5129516629821151e-01 -6.8681964354940594e-01
6.885170340681364e+00 -5.5331306451401496e-01 -6.8593088929943735e-01
6.905010020040081e+00 -5.5531870518167048e-01 -6.8504050118674586e-01
6.924849699398798e+00 -5.5731217383986076e-01 -6.8414854221127985e-01
6.944689378757515e+00 -5.5929355546617932e-01 -6.8325507429296828e-01
6.964529058116233e+00 -5.6126293447818054e-01 -6.8236015828888485e-01
6.984368737474950e+00 -5.6322039473451946e-01 -6.8146385401013876e-01
7.004208416833668e+00 -5.6516601953617840e-01 -6.8056622023850188e-01
7.024048096192385e+00 -5.6709989162778041e-01 -6.7966731474277176e-01
7.043887775551103e+00 -5.6902209319898234e-01 -6.7876719429487753e-01
7.063727454909820e+00 -5.7093270588594813e-01 -6.7786591468573176e-01
7.083567134268538e+00 -5.7283181077289524e-01 -6.7696353074083204e-01
7.103406813627255e+00 -5.7471948839371523e-01 -6.7606009633561714e-01
7.123246492985973e+00 -5.7659581873366250e-01 -6.7515566441057784e-01
7.143086172344690e+00 -5.7846088123110972e-01 -6.7425028698613287e-01
7.162925851703408e+00 -5.8031475477936889e-01 -6.7334401517726827e-01
7.182765531062125e+00 -5.8215751772857049e-01 -6.7243689920794381e-01
7.202605210420842e+00 -5.8398924788760476e-01 -6.7152898842527431e-01
7.222444889779560e+00 -5.8581002252611625e-01 -6.7062033131348564e-01
7.242284569138277e+00 -5.8761991837655470e-01 -6.6971097550765035e-01
7.262124248496995e+00 -5.8941901163627519e-01 -6.6880096780720499e-01
7.281963927855712e+00 -5.9120737796968958e-01 -6.6789035418925569e-01
7.301803607214429e+00 -5.9298509251046261e-01 -6.6697917982167132e-01
7.321643286573146e+00 -5.9475222986375487e-01 -6.6606748907597113e-01
7.341482965931864e+00 -5.9650886410850723e-01 -6.6515532554000667e-01
7.361322645290581e+00 -5.9825506879976698e-01 -6.6424273203044493e-01
7.381162324649299e+00 -5.9999091697105222e-01 -6.6332975060505317e-01
7.401002004008016e+00 -6.0171648113675225e-01 -6.6241642257478839e-01
7.420841683366734e+00 -6.0343183329456485e-01 -6.6150278851569688e-01
7.440681362725451e+00 -6.0513704492796605e-01 -6.6058888828062468e-01
7.460521042084169e+00 -6.0683218700871044e-01 -6.5967476101074296e-01
7.480360721442886e+00 -6.0851732999936170e-01 -6.5876044514689003e-01
7.500200400801604e+00 -6.1019254385585364e-01 -6.5784597844073567e-01
7.520040080160321e+00 -6.1185789803007418e-01 -6.5693139796576672e-01
7.539879759519039e+00 -6.1351346147247676e-01 -6.5601674012809930e-01
7.559719438877756e+00 -6.1515930263471474e-01 -6.5510204067712141e-01
7.579559118236474e+00 -6.1679548947229879e-01 -6.5418733471596402e-01
7.599398797595191e+00 -6.1842208944727228e-01 -6.5327265671180978e-01
7.619238476953909e+00 -6.2003916953091076e-01 -6.5235804050603508e-01
7.639078156312626e+00 -6.2164679620643470e-01 -6.5144351932419486e-01
7.658917835671343e+00 -6.2324503547174204e-01 -6.5052912578584676e-01
7.678757515030060e+00 -6.2483395284215593e-01 -6.4961489191422050e-01
7.698597194388778e+00 -6.2641361335318602e-01 -6.4870084914573545e-01
7.718436873747495e+00 -6.2798408156330343e-01 -6.4778702833936552e-01
7.738276553106213e+00 -6.2954542155672855e-01 -6.4687345978585731e-01
7.758116232464930e+00 -6.3109769694622864e-01 -6.4596017321680166e-01
7.777955911823648e+00 -6.3264097087592674e-01 -6.4504719781356146e-01
7.797795591182365e+00 -6.3417530602411909e-01 -6.4413456221605936e-01
7.817635270541083e+00 -6.3570076460609959e-01 -6.4322229453142421e-01
7.837474949899800e+00 -6.3721740837699326e-01 -6.4231042234250313e-01
7.857314629258518e+00 -6.3872529863459460e-01 -6.4139897271623791e-01
7.877154308617235e+00 -6.4022449622221134e-01 -6.4048797221190767e-01
7.896993987975953e+00 -6.4171506153151348e-01 -6.3957744688924312e-01
7.916833667334670e+00 -6.4319705450538422e-01 -6.3866742231641183e-01
7.936673346693388e+00 -6.4467053464077617e-01 -6.3775792357787608e-01
7.956513026052105e+00 -6.4613556099156710e-01 -6.3684897528212792e-01
7.976352705410823e+00 -6.4759219217141883e-01 -6.3594060156930177e-01
7.996192384769540e+00 -6.4904048635663569e-01 -6.3503282611866574e-01
8.016032064128257e+00 -6.5048050128902291e-01 -6.3412567215599525e-01
8.035871743486974e+00 -6.5191229427874575e-01 -6.3321916246082999e-01
8.055711422845691e+00 -6.5333592220718351e-01 -6.3231331937361634e-01
8.075551102204409e+00 -6.5475144152978670e-01 -6.3140816480273676e-01
8.095390781563127e+00 -6.5615890827892687e-01 -6.3050372023142753e-01
8.115230460921843e+00 -6.5755837806674566e-01 -6.2960000672458993e-01
8.135070140280561e+00 -6.5894990608800008e-01 -6.2869704493548872e-01
8.154909819639279e+00 -6.6033354712290127e-01 -6.2779485511235089e-01
8.174749498997997e+00 -6.6170935553995214e-01 -6.2689345710485544e-01
8.194589178356713e+00 -6.6307738529877502e-01 -6.2599287037052376e-01
8.214428857715431e+00 -6.6443768995293817e-01 -6.2509311398100686e-01
8.234268537074149e+00 -6.6579032265277283e-01 -6.2419420662827607e-01
8.254108216432867e+00 -6.6713533614818366e-01 -6.2329616663071319e-01
8.273947895791583e+00 -6.6847278279145417e-01 -6.2239901193910663e-01
8.293787575150301e+00 -6.6980271454004203e-01 -6.2150276014255290e-01
8.313627254509019e+00 -6.7112518295936885e-01 -6.2060742847426353e-01
8.333466933867737e+00 -6.7244023922559837e-01 -6.1971303381728160e-01
8.353306613226453e+00 -6.7374793412840950e-01 -6.1881959271010911e-01
8.373146292585171e+00 -6.7504831807375776e-01 -6.1792712135224293e-01
8.392985971943888e+00 -6.7634144108662853e-01 -6.1703563560962738e-01
8.412825651302606e+00 -6.7762735281377995e-01 -6.1614515102001643e-01
8.432665330661322e+00 -6.7890610252647543e-01 -6.1525568279825615e-01
8.452505010020040e+00 -6.8017773912320789e-01 -6.1436724584147984e-01
8.472344689378758e+00 -6.8144231113240983e-01 -6.1347985473422417e-01
8.492184368737476e+00 -6.8269986671515626e-01 -6.1259352375346410e-01
8.512024048096192e+00 -6.8395045366785356e-01 -6.1170826687356772e-01
8.531863727454910e+00 -6.8519411942491903e-01 -6.1082409777117452e-01
8.551703406813628e+00 -6.8643091106144671e-01 -6.0994102982999554e-01
8.571543086172346e+00 -6.8766087529586384e-01 -6.0905907614553934e-01
8.591382765531064e+00 -6.8888405849257328e-01 -6.0817824952976351e-01
8.611222444889778e+00 -6.9010050666458356e-01 -6.0729856251565173e-01
8.631062124248498e+00 -6.9131026547612917e-01 -6.0642002736171929e-01
8.650901803607214e+00 -6.9251338024527342e-01 -6.0554265605645163e-01
8.670741482965932e+00 -6.9370989594650367e-01 -6.0466646032266635e-01
8.690581162324650e+00 -6.9489985721331071e-01 -6.0379145162181258e-01
8.710420841683367e+00 -6.9608330834075394e-01 -6.0291764115819990e-01
8.730260521042084e+00 -6.9726029328801664e-01 -6.0204503988316138e-01
8.750100200400801e+00 -6.9843085568094454e-01 -6.0117365849915261e-01
8.769939879759519e+00 -6.9959503881457352e-01 -6.0030350746378447e-01
8.789779559118237e+00 -7.0075288565564109e-01 -5.9943459699379420e-01
8.809619238476953e+00 -7.0190443884508569e-01 -5.9856693706895325e-01
8.829458917835671e+00 -7.0304974070053217e-01 -5.9770053743591411e-01
8.849298597194389e+00 -7.0418883321876224e-01 -5.9683540761199771e-01
8.869138276553107e+00 -7.0532175807817143e-01 -5.9597155688891990e-01
8.888977955911823e+00 -7.0644855664121198e-01 -5.9510899433646147e-01
8.908817635270541e+00 -7.0756926995682079e-01 -5.9424772880607801e-01
8.928657314629259e+00 -7.0868393876283431e-01 -5.9338776893445699e-01
8.948496993987977e+00 -7.0979260348838713e-01 -5.9252912314701534e-01
8.968336673346693e+00 -7.1089530425629832e-01 -5.9167179966134453e-01
8.988176352705411e+00 -7.1199208088544108e-01 -5.9081580649060172e-01
9.008016032064129e+00 -7.1308297289309919e-01 -5.8996115144684669e-01
9.027855711422847e+00 -7.1416801949730824e-01 -5.8910784214432799e-01
9.047695390781563e+00 -7.1524725961918312e-01 -5.8825588600271594e-01
9.067535070140281e+00 -7.1632073188522905e-01 -5.8740529025028732e-01
9.087374749498998e+00 -7.1738847462963951e-01 -5.8655606192705800e-01
9.107214428857716e+00 -7.1845052589657843e-01 -5.8570820788786893e-01
9.127054108216432e+00 -7.1950692344244793e-01 -5.8486173480542181e-01
9.146893787575150e+00 -7.2055770473814174e-01 -5.8401664917326779e-01
9.166733466933868e+00 -7.2160290697128304e-01 -5.8317295730875196e-01
9.186573146292586e+00 -7.2264256704844732e-01 -5.8233066535590750e-01
9.206412825651302e+00 -7.2367672159737173e-01 -5.8148977928830892e-01
9.226252505010020e+00 -7.2470540696914720e-01 -5.8065030491187719e-01
9.246092184368738e+00 -7.2572865924040009e-01 -5.7981224786764485e-01
9.265931863727456e+00 -7.2674651421545233e-01 -5.7897561363447370e-01
9.285771543086172e+00 -7.2775900742847377e-01 -5.7814040753173401e-01
9.305611222444890e+00 -7.2876617414561462e-01 -5.7730663472193977e-01
9.325450901803608e+00 -7.2976804936712603e-01 -5.7647430021334223e-01
9.345290581162326e+00 -7.3076466782946459e-01 -5.7564340886248722e-01
9.365130260521042e+00 -7.3175606400738191e-01 -5.7481396537672569e-01
9.384969939879760e+00 -7.3274227211600018e-01 -5.7398597431669163e-01
9.404809619238478e+00 -7.3372332611287350e-01 -5.7315944009873776e-01
9.424649298597195e+00 -7.3469925970003291e-01 -5.7233436699733520e-01
9.444488977955912e+00 -7.3567010632601748e-01 -5.7151075914743277e-01
9.464328657314629e+00 -7.3663589918789218e-01 -5.7068862054678449e-01
9.484168336673347e+00 -7.3759667123324901e-01 -5.6986795505823518e-01
9.504008016032065e+00 -7.3855245516219459e-01 -5.6904876641197610e-01
9.523847695390781e+00 -7.3950328342932437e-01 -5.6823105820775965e-01
9.543687374749499e+00 -7.4044918824567951e-01 -5.6741483391708569e-01
9.563527054108217e+00 -7.4139020158069302e-01 -5.6660009688534796e-01
9.583366733466935e+00 -7.4232635516411827e-01 -5.6578685033395260e-01
9.603206412825651e+00 -7.4325768048794505e-01 -5.6497509736239904e-01
9.623046092184369e+00 -7.4418420880830127e-01 -5.6416484095033181e-01
9.642885771543087e+00 -7.4510597114734023e-01 -5.6335608395955827e-01
9.662725450901805e+00 -7.4602299829511287e-01 -5.6254882913603710e-01
9.682565130260521e+00 -7.4693532081142755e-01 -5.6174307911183363e-01
9.702404809619239e+00 -7.4784296902769387e-01 -5.6093883640704612e-01
9.722244488977957e+00 -7.4874597304875501e-01 -5.6013610343170228e-01
9.742084168336675e+00 -7.4964436275470359e-01 -5.5933488248762597e-01
9.761923847695391e+00 -7.5053816780268556e-01 -5.5853517577027356e-01
9.781763527054109e+00 -7.5142741762868948e-01 -5.5773698537054506e-01
9.801603206412826e+00 -7.5231214144932212e-01 -5.5694031327656313e-01
9.821442885771544e+00 -7.5319236826356961e-01 -5.5614516137542747e-01
9.841282565130260e+00 -7.5406812685454749e-01 -5.5535153145494076e-01
9.861122244488978e+00 -7.5493944579123384e-01 -5.5455942520530788e-01
9.880961923847696e+00 -7.5580635343019287e-01 -5.5376884422080908e-01
9.900801603206414e+00 -7.5666887791728066e-01 -5.5297979000144648e-01
9.920641282565130e+00 -7.5752704718934072e-01 -5.5219226395456567e-01
9.940480961923848e+00 -7.5838088897588618e-01 -5.5140626739645215e-01
9.960320641282566e+00 -7.5923043080076724e-01 -5.5062180155390250e-01
9.980160320641284e+00 -7.6007569998382607e-01 -5.4983886756577127e-01
1.000000000000000e+01 -7.6091672364254004e-01 -5.4905746648449505e-01
