# GHz S RI R 50

1.000000000000000e-01 -2.5533397151838844e-01  3.2415334486451791e-01
1.198396793587174e-01 -2.1130613952595267e-01  3.0774681439539509e-01
1.396793587174349e-01 -1.8450406274161490e-01  3.0516006369287291e-01
1.595190380761523e-01 -1.4711919403706600e-01  3.0577080592348987e-01
1.793587174348698e-01 -1.2265539674873061e-01  2.8312451879617218e-01
1.991983967935872e-01 -9.4342526421830719e-02  2.8947455171897918e-01
2.190380761523046e-01 -6.4744510001478420e-02  2.7055197951846449e-01
2.388777555110221e-01 -6.2017928239367824e-02  2.6634527356377885e-01
2.587174348697395e-01 -3.2492262407405784e-02  2.4881612480149304e-01
2.785571142284569e-01 -3.1041280415947593e-02  2.4977917642810202e-01
2.983967935871744e-01 -2.0051704215150019e-02  2.3765685830246877e-01
3.182364729458918e-01 -3.1898907099710645e-03  2.3596158795844152e-01
3.380761523046092e-01  6.6839122014702382e-03  2.1935904866955597e-01
3.579158316633266e-01  1.2895714706219965e-02  2.1118893815681913e-01
3.777555110220441e-01  1.1634575609475187e-02  2.0422151052096210e-01
3.975951903807615e-01  2.2220955874911064e-02  2.1136300425707027e-01
4.174348697394790e-01  2.7370681969832562e-02  1.9366569668675798e-01
4.372745490981964e-01  3.4591241100587616e-02  1.8141571024564140e-01
4.571142284569139e-01  3.8167448185487340e-02  1.8865574564030604e-01
4.769539078156313e-01  4.8672845267044670e-02  1.7877915893997667e-01
4.967935871743487e-01  5.5662175167308675e-02  1.7188980945843063e-01
5.166332665330662e-01  5.3051851202803889e-02  1.7152568421091241e-01
5.364729458917836e-01  6.0456831169334105e-02  1.6889402030399578e-01
5.563126252505010e-01  6.4574775166392734e-02  1.5701398316081849e-01
5.761523046092184e-01  6.4288718446254819e-02  1.5671219866210345e-01
5.959919839679358e-01  6.4866669034383290e-02  1.5076396553489702e-01
6.158316633266533e-01  6.5920361863358881e-02  1.4577582941324482e-01
6.356713426853707e-01  6.5036501082250370e-02  1.4757121071860285e-01
6.555110220440882e-01  7.1535516122952059e-02  1.4549517590422298e-01
6.753507014028056e-01  7.5600238514492796e-02  1.3188991994787827e-01
6.951903807615231e-01  7.5631509695113772e-02  1.4129168975617892e-01
7.150300601202405e-01  7.9292224631541494e-02  1.3362516751018913e-01
7.348697394789580e-01  7.9958106352599312e-02  1.2897204755866301e-01
7.547094188376754e-01  8.4499341316780954e-02  1.1960483322009489e-01
7.745490981963928e-01  7.9321582834871396e-02  1.2377287289928915e-01
7.943887775551103e-01  8.3122028439215900e-02  1.2233290690390364e-01
8.142284569138277e-01  8.6085247962827113e-02  1.2092539509089370e-01
8.340681362725452e-01  8.4082713091328087e-02  1.1604776094463631e-01
8.539078156312626e-01  8.8386806634569340e-02  1.2077741438806086e-01
8.737474949899801e-01  7.9072314217277562e-02  1.2199154789183583e-01
8.935871743486975e-01  9.1140796996519405e-02  1.1845712862115125e-01
9.134268537074149e-01  9.2008049976842921e-02  1.0925253777457379e-01
9.332665330661324e-01  9.0495671909307338e-02  1.1032423938107140e-01
9.531062124248498e-01  8.9494829398486214e-02  1.0899155973123367e-01
9.729458917835673e-01  8.9810994213195841e-02  1.0222789589306053e-01
9.927855711422846e-01  8.4130007009817626e-02  1.0372223154886775e-01
1.012625250501002e+00  9.8774616118458267e-02  9.9334532436060025e-02
1.032464929859719e+00  9.7083771735896052e-02  1.0118807858294912e-01
1.052304609218437e+00  8.9046878798198975e-02  1.0751059781063729e-01
1.072144288577154e+00  8.7645470763823008e-02  9.7193673521417542e-02
1.091983967935872e+00  9.3627583711783285e-02  9.3193334251211873e-02
1.111823647294589e+00  9.9454854732993009e-02  1.0250017896642510e-01
1.131663326653306e+00  1.0068719893002059e-01  9.8789544003364427e-02
1.151503006012024e+00  9.9648169234790557e-02  9.0651729942612835e-02
1.171342685370741e+00  1.0124586123823612e-01  8.8489667975941919e-02
1.191182364729459e+00  1.0659135559390613e-01  9.8164610513251635e-02
1.211022044088176e+00  8.9688340418810492e-02  9.0240297702950584e-02
1.230861723446894e+00  1.0093333606434315e-01  9.0019236738286865e-02
1.250701402805611e+00  9.8674095296471281e-02  8.9883557226795044e-02
1.270541082164329e+00  9.5545933510316511e-02  8.4069253440952244e-02
1.290380761523046e+00  1.0320457678373514e-01  9.1768186538868771e-02
1.310220440881763e+00  9.9910212878218704e-02  9.7229211316771896e-02
1.330060120240481e+00  1.0624270432335479e-01  7.2193452635303940e-02
1.349899799599198e+00  9.5364446845462511e-02  8.4819568396584819e-02
1.369739478957916e+00  9.6577800191498475e-02  8.7780717776341791e-02
1.389579158316633e+00  1.0325318030317100e-01  7.8324851102676285e-02
1.409418837675351e+00  9.6908783634841081e-02  8.2027782458975601e-02
1.429258517034068e+00  1.0220334236919439e-01  8.1731125772500260e-02
1.449098196392786e+00  9.9829378314335845e-02  7.7201552926093472e-02
1.468937875751503e+00  1.0755543909147620e-01  8.3077514372123906e-02
1.488777555110220e+00  1.0448043044175911e-01  8.4984694920525378e-02
1.508617234468938e+00  1.0047932484861664e-01  7.9412964223190191e-02
1.528456913827655e+00  9.9530860842898597e-02  7.9551412796719942e-02
1.548296593186373e+00  1.0090290860813862e-01  7.4396023514204934e-02
1.568136272545090e+00  1.1509301470026888e-01  8.2164892306552273e-02
1.587975951903808e+00  1.0306568496293712e-01  7.5582844163426199e-02
1.607815631262525e+00  1.0248503384194455e-01  7.7716455425655140e-02
1.627655310621243e+00  1.0268866047608619e-01  8.0882585202399604e-02
1.647494989979960e+00  1.1143090398182143e-01  7.3034247666822941e-02
1.667334669338677e+00  9.5356108602951489e-02  7.3076729933717374e-02
1.687174348697395e+00  1.0974241125263386e-01  7.4042643412852160e-02
1.707014028056112e+00  1.0074184599586057e-01  7.2030009975105252e-02
1.726853707414830e+00  1.0312514472123693e-01  6.6372718243332893e-02
1.746693386773547e+00  1.0802843965392285e-01  7.4713748366465937e-02
1.766533066132265e+00  1.0010452530614250e-01  6.4691582997094044e-02
1.786372745490982e+00  1.0705682560840750e-01  6.9987253412626488e-02
1.806212424849700e+00  1.0469326141384105e-01  6.4090171876457491e-02
1.826052104208417e+00  9.8206114215999965e-02  7.7273940291420165e-02
1.845891783567134e+00  1.0629244906776740e-01  7.0839815202909384e-02
1.865731462925852e+00  1.0836037726989987e-01  7.2465032494680018e-02
1.885571142284569e+00  1.0877211798536071e-01  6.8424387400768866e-02
1.905410821643287e+00  1.0287432290145157e-01  7.7351654787407936e-02
1.925250501002004e+00  1.0574209555784965e-01  6.7086689268973529e-02
1.945090180360721e+00  1.0905021318420252e-01  7.4564220303957443e-02
1.964929859719439e+00  1.0871897765805225e-01  7.4280110091681104e-02
1.984769539078156e+00  1.0421577567314794e-01  6.5604682023847657e-02
2.004609218436874e+00  9.9912416289614073e-02  7.0106750329314405e-02
2.024448897795591e+00  1.0773972763735944e-01  6.8329122393704728e-02
2.044288577154309e+00  1.0806781756328226e-01  7.8015854725187392e-02
2.064128256513026e+00  1.1407394543934937e-01  6.2222971358931838e-02
2.083967935871744e+00  9.8912690785128488e-02  5.9032636867117814e-02
2.103807615230461e+00  1.0500787119184130e-01  6.8278869091161723e-02
2.123647294589178e+00  1.0904622417867162e-01  6.1653519612830075e-02
2.143486973947896e+00  1.0646164971970870e-01  6.3340264491366385e-02
2.163326653306613e+00  1.1720510196368862e-01  6.7734928315676332e-02
2.183166332665331e+00  1.0531576163713798e-01  5.9386356476577751e-02
2.203006012024048e+00  9.5421907885826968e-02  7.1040917876319415e-02
2.222845691382766e+00  1.1097749954724682e-01  6.7601964999530861e-02
2.242685370741483e+00  1.0041905412140398e-01  7.2426070793923297e-02
2.262525050100200e+00  1.1407312485645874e-01  6.3580266914200684e-02
2.282364729458918e+00  1.0960098478257201e-01  6.9536397770822933e-02
2.302204408817635e+00  1.0594288402215750e-01  5.9214516158290681e-02
2.322044088176352e+00  1.0284399047984179e-01  6.5856980206216206e-02
2.341883767535070e+00  1.1711042308516330e-01  7.0119443263622058e-02
2.361723446893787e+00  1.0944960636417489e-01  6.1116439385031418e-02
2.381563126252505e+00  1.0553349688200525e-01  6.4655007534992578e-02
2.401402805611222e+00  1.0458061133627077e-01  7.2257575862050227e-02
2.421242484969940e+00  1.0722804393710658e-01  6.0032913348815782e-02
2.441082164328657e+00  1.1448540386497032e-01  5.8279876635052123e-02
2.460921843687375e+00  1.1783072424440896e-01  6.8381248153615681e-02
2.480761523046092e+00  1.0848506501451909e-01  6.3481995289622090e-02
2.500601202404809e+00  1.1055595134585941e-01  5.7987037510959481e-02
2.520440881763527e+00  1.1010747569572021e-01  5.8917528981334691e-02
2.540280561122244e+00  1.0031533430043837e-01  6.5017612638415240e-02
2.560120240480962e+00  1.0933059395830155e-01  6.4415313884345279e-02
2.579959919839679e+00  1.0620665629781453e-01  6.1341964398444353e-02
2.599799599198397e+00  1.0662523594135945e-01  6.4158355024901706e-02
2.619639278557114e+00  1.0807625318189201e-01  6.5752558910750103e-02
2.639478957915832e+00  9.4442417799518633e-02  5.9196946797273768e-02
2.659318637274549e+00  1.0528894597510202e-01  6.1178340684101329e-02
2.679158316633266e+00  1.1280729025271881e-01  5.9078080842678800e-02
2.698997995991984e+00  1.0969412977738699e-01  6.9338823158588095e-02
2.718837675350701e+00  1.0657400518547226e-01  5.6182631339983850e-02
2.738677354709419e+00  1.0751204776659680e-01  7.0586945068583026e-02
2.758517034068136e+00  1.0387864548535465e-01  5.9611491062401399e-02
2.778356713426854e+00  1.0585340859264461e-01  6.2397542138134782e-02
2.798196392785571e+00  1.0648661690373397e-01  6.7146159343969822e-02
2.818036072144289e+00  1.0853174030005504e-01  6.6001465698161607e-02
2.837875751503006e+00  1.1246247546441540e-01  6.0562932596284237e-02
2.857715430861723e+00  1.0947732638133821e-01  6.6673329580318741e-02
2.877555110220441e+00  1.0924316107940688e-01  5.6295487651236882e-02
2.897394789579158e+00  1.0552341789627193e-01  6.9068201865843767e-02
2.917234468937876e+00  1.1465272248789332e-01  6.7932767333973701e-02
2.937074148296593e+00  1.1099526359171717e-01  6.2195766070334224e-02
2.956913827655311e+00  1.1270600139960221e-01  6.4098197307132732e-02
2.976753507014028e+00  1.1102975390819113e-01  6.6954623039429839e-02
2.996593186372746e+00  1.1402906303160956e-01  6.0399522565699477e-02
3.016432865731463e+00  1.1761002600577546e-01  6.4749061310611630e-02
3.036272545090180e+00  1.0794580171746504e-01  6.5444496037167760e-02
3.056112224448898e+00  1.1287305321347409e-01  6.3857338038685305e-02
3.075951903807615e+00  1.1361274854795626e-01  5.4886553507657497e-02
3.095791583166333e+00  1.1022814256250026e-01  6.0305016252038220e-02
3.115631262525050e+00  1.1988715256416742e-01  5.2098721718304507e-02
3.135470941883768e+00  1.0548958760281513e-01  6.0063873810318413e-02
3.155310621242485e+00  1.0800700465589433e-01  5.8030997503578138e-02
3.175150300601203e+00  1.1088189763385010e-01  6.1503755949960839e-02
3.194989979959920e+00  1.1067795370241060e-01  6.3876935050428477e-02
3.214829659318637e+00  1.0948736360941057e-01  6.6148146811304584e-02
3.234669338677355e+00  1.0825689282752760e-01  6.1292601852615376e-02
3.254509018036072e+00  1.1483230657230450e-01  6.2221659612286602e-02
3.274348697394790e+00  1.1046112438016142e-01  6.7101974097670380e-02
3.294188376753507e+00  1.0678292293171597e-01  6.8535806499744348e-02
3.314028056112225e+00  1.1943437067991586e-01  6.3158913762339730e-02
3.333867735470942e+00  1.1548425974940195e-01  6.6397944544364970e-02
3.353707414829660e+00  1.1842081754691322e-01  5.8464821636403902e-02
3.373547094188377e+00  1.1089587220902811e-01  7.0067021210263328e-02
3.393386773547094e+00  1.2066160699584409e-01  5.8851524138188255e-02
3.413226452905812e+00  1.1573362194372672e-01  5.8356042012097008e-02
3.433066132264529e+00  1.0214737782187625e-01  6.4914483752086832e-02
3.452905811623247e+00  1.0491385799600150e-01  6.1929135602840975e-02
3.472745490981964e+00  1.1421097412156081e-01  5.4357035690629427e-02
3.492585170340682e+00  1.1076420932307633e-01  6.7712249106015504e-02
3.512424849699399e+00  1.1067832640621469e-01  6.5838051243060428e-02
3.532264529058116e+00  1.1682339083433696e-01  7.0638930531876615e-02
3.552104208416834e+00  1.2001256612608165e-01  6.3915423873543292e-02
3.571943887775551e+00  1.1350980391763295e-01  6.6008162540380166e-02
3.591783567134269e+00  1.1224222534837981e-01  5.6769604634782971e-02
3.611623246492986e+00  1.2291210227215173e-01  7.1869342746638892e-02
3.631462925851704e+00  1.1165588187985512e-01  7.4476001250727605e-02
3.651302605210421e+00  1.0950829986786188e-01  6.0760300181724618e-02
3.671142284569138e+00  1.0883752699440036e-01  5.9242662075938889e-02
3.690981963927856e+00  1.0818611581320817e-01  6.7768238909804310e-02
3.710821643286573e+00  1.1232459234744668e-01  5.7143839220205585e-02
3.730661322645290e+00  1.0766345459955828e-01  6.3642231410046490e-02
3.750501002004008e+00  1.0272728293020911e-01  6.2255422165055127e-02
3.770340681362725e+00  1.0564647471525798e-01  6.7119352150759704e-02
3.790180360721443e+00  1.1430347596209964e-01  5.3199995955726317e-02
3.810020040080160e+00  1.1763042138384053e-01  6.3720748396434740e-02
3.829859719438878e+00  1.1823855084505075e-01  6.4473768351754349e-02
3.849699398797595e+00  1.2384138475040225e-01  5.4370605481136716e-02
3.869539078156313e+00  1.0690869455110322e-01  6.2495027346506214e-02
3.889378757515030e+00  1.1920278884192349e-01  6.6499481800029583e-02
3.909218436873747e+00  1.1284005046255934e-01  5.7040336291536868e-02
3.929058116232465e+00  1.1014427870187553e-01  6.1985764259954668e-02
3.948897795591182e+00  1.1040284415344438e-01  6.4538155578678216e-02
3.968737474949900e+00  1.1703443395626396e-01  6.1010087415660226e-02
3.988577154308617e+00  1.1588664793031211e-01  7.1559141297911355e-02
4.008416833667335e+00  1.0365861378516700e-01  6.7611764120228318e-02
4.028256513026053e+00  1.1786462276867447e-01  6.0943241526569145e-02
4.048096192384770e+00  1.1691896408928068e-01  6.5568675492364434e-02
4.067935871743487e+00  1.1166283436716029e-01  6.9629235345462240e-02
4.087775551102204e+00  1.0798989304205074e-01  6.5301886640057580e-02
4.107615230460922e+00  1.0910004443874871e-01  6.6922071805927880e-02
4.127454909819639e+00  1.0681917367712791e-01  6.7430848104438834e-02
4.147294589178357e+00  1.1280055883713358e-01  6.7989554724157353e-02
4.167134268537074e+00  1.1116020109847659e-01  5.7759772317288995e-02
4.186973947895792e+00  1.1159573121362089e-01  6.1070163161149292e-02
4.206813627254509e+00  1.1431426527919224e-01  6.2771280846223729e-02
4.226653306613227e+00  1.1177285359423897e-01  5.6631105224011671e-02
4.246492985971944e+00  1.0482559566535529e-01  5.7692277398035945e-02
4.266332665330662e+00  1.1037016991178906e-01  6.6574293047878264e-02
4.286172344689379e+00  1.1079918786160266e-01  6.6665873269990211e-02
4.306012024048096e+00  1.0488904388511192e-01  6.9580463328396208e-02
4.325851703406814e+00  1.1794890629601498e-01  6.6872470384186020e-02
4.345691382765532e+00  1.0273968381865345e-01  6.1298439990240115e-02
4.365531062124249e+00  1.1573600548719624e-01  6.5142446827340744e-02
4.385370741482966e+00  1.1220385468412716e-01  6.1728050538670053e-02
4.405210420841684e+00  1.1190924318354892e-01  6.9736761319770718e-02
4.425050100200401e+00  1.1702145193019839e-01  5.7937389354300171e-02
4.444889779559118e+00  1.1231825709332013e-01  6.9881339886402161e-02
4.464729458917835e+00  1.1275455068463812e-01  6.8167336277605947e-02
4.484569138276553e+00  1.0958373605545461e-01  6.9635836897533152e-02
4.504408817635270e+00  1.1962341693480889e-01  6.2971554191541060e-02
4.524248496993988e+00  1.1900577353228262e-01  6.6945328177494018e-02
4.544088176352705e+00  1.1753300855333899e-01  6.5850261297243501e-02
4.563927855711423e+00  1.1681032051943105e-01  5.8597675045399242e-02
4.583767535070140e+00  1.1783954663842207e-01  6.8673046334706736e-02
4.603607214428858e+00  1.1773203017575107e-01  6.8560011265525508e-02
4.623446893787575e+00  1.1628475188058675e-01  6.2730115429430369e-02
4.643286573146293e+00  1.1752594727506498e-01  7.2745075652729432e-02
4.663126252505010e+00  1.1087597872328193e-01  5.7819281856730700e-02
4.682965931863728e+00  1.1462199064199471e-01  6.4690553580859095e-02
4.702805611222445e+00  1.1728099743631402e-01  6.4892658680352044e-02
4.722645290581163e+00  1.1095565045786038e-01  6.3380157264315326e-02
4.742484969939880e+00  1.1464093257535306e-01  6.3731584048845658e-02
4.762324649298598e+00  1.1375369885062242e-01  6.9569737233232717e-02
4.782164328657315e+00  1.2095262007479829e-01  6.2889338201780859e-02
4.802004008016032e+00  1.1716228374357492e-01  6.7707140189667031e-02
4.821843687374749e+00  1.2032664877143015e-01  6.5342150668987478e-02
4.841683366733467e+00  1.1802218373759041e-01  6.6931564449277961e-02
4.861523046092184e+00  1.2000965209248682e-01  7.7341319199369041e-02
4.881362725450902e+00  1.1454575086407442e-01  6.5077061406019876e-02
4.901202404809619e+00  1.1564886031298809e-01  7.2321296961889062e-02
4.921042084168337e+00  1.1198727678743671e-01  6.8190933792034600e-02
4.940881763527054e+00  1.1712099672752771e-01  6.8267439177567599e-02
4.960721442885772e+00  1.3060967949319155e-01  5.8705984215645081e-02
4.980561122244489e+00  1.1578153686280518e-01  7.3432431204475290e-02
5.000400801603207e+00  1.1512103165534462e-01  6.9211239272729458e-02
5.020240480961924e+00  1.1969579384576734e-01  6.6379117365276741e-02
5.040080160320642e+00  1.0764204399559070e-01  6.8847425667794157e-02
5.059919839679359e+00  1.2115701428242290e-01  6.8226846678597242e-02
5.079759519038077e+00  1.1133386205112353e-01  7.8044094416045096e-02
5.099599198396794e+00  1.1846521855236980e-01  6.3462333421061334e-02
5.119438877755512e+00  1.1706674436007247e-01  6.6301968614171133e-02
5.139278557114229e+00  1.1540482616272810e-01  7.0537211548370657e-02
5.159118236472946e+00  1.1220987016374283e-01  7.8608018557632511e-02
5.178957915831663e+00  1.1793924591622418e-01  7.0738363779320315e-02
5.198797595190381e+00  1.2153203058709743e-01  7.5122307380860009e-02
5.218637274549098e+00  1.1937910938767622e-01  7.3445111088731946e-02
5.238476953907816e+00  1.2300313266081563e-01  7.3392578608863557e-02
5.258316633266533e+00  1.0913662955612227e-01  7.6351820435797635e-02
5.278156312625251e+00  1.1623290895831224e-01  8.1486980448513394e-02
5.297995991983968e+00  1.0944197134037424e-01  7.0885891399043985e-02
5.317835671342686e+00  1.1682417996780742e-01  6.8815419356767493e-02
5.337675350701403e+00  1.1901654706231196e-01  7.1319559349086070e-02
5.357515030060121e+00  1.1252756747330406e-01  6.8985956680632371e-02
5.377354709418838e+00  1.2283765390896123e-01  5.9063922570654875e-02
5.397194388777556e+00  1.1410700207598794e-01  7.0160066601444915e-02
5.417034068136273e+00  1.1965631892725181e-01  7.1698585853377683e-02
5.436873747494991e+00  1.1485868135296445e-01  6.9147849651473442e-02
5.456713426853708e+00  1.1286367735577910e-01  7.0015309971605447e-02
5.476553106212426e+00  1.1302772783607487e-01  7.7401575352448265e-02
5.496392785571143e+00  1.0951675632957054e-01  7.1754068565370671e-02
5.516232464929860e+00  1.2443421217533598e-01  7.1313423661314643e-02
5.536072144288577e+00  1.0465289276124194e-01  6.8277987298638584e-02
5.555911823647295e+00  1.1049760983236576e-01  6.8920656680499515e-02
5.575751503006012e+00  1.0708386379668387e-01  7.1324868295720947e-02
5.595591182364730e+00  1.1035101788778451e-01  7.2591870971719361e-02
5.615430861723447e+00  1.0316570650569050e-01  7.4018475370712294e-02
5.635270541082165e+00  1.2019510862916097e-01  8.0375168791465904e-02
5.655110220440882e+00  1.1744579695653988e-01  7.9105637950960872e-02
5.674949899799600e+00  1.1214853139978843e-01  6.6461013962417839e-02
5.694789579158317e+00  1.1085790835771600e-01  8.1354445018979912e-02
5.714629258517035e+00  1.1083268812910514e-01  6.7768827637048903e-02
5.734468937875752e+00  1.1609023395666873e-01  8.5677510069876908e-02
5.754308617234470e+00  1.0743210521172079e-01  7.3943327078748344e-02
5.774148296593187e+00  1.1963640985260848e-01  7.0878995374422091e-02
5.793987975951904e+00  1.1721395261180313e-01  6.3092158150095806e-02
5.813827655310622e+00  1.1601222503990199e-01  7.1335106568730863e-02
5.833667334669339e+00  1.2104525258831947e-01  8.1162356302882446e-02
5.853507014028057e+00  1.1957356732287025e-01  7.1515245031105831e-02
5.873346693386774e+00  1.1618226651973239e-01  7.1451637737197704e-02
5.893186372745491e+00  1.1812060984712285e-01  6.7268161779418689e-02
5.913026052104208e+00  1.1736105933094533e-01  6.8091350863157069e-02
5.932865731462926e+00  1.1495886394182302e-01  7.1195540547155794e-02
5.952705410821643e+00  1.2370763522841061e-01  7.6017403905358924e-02
5.972545090180361e+00  1.2422278776474832e-01  6.4034373361192776e-02
5.992384769539078e+00  1.1863551989598003e-01  7.7811370509548353e-02
6.012224448897796e+00  1.1320166133702105e-01  7.2198086611285003e-02
6.032064128256513e+00  1.1253246997153706e-01  7.8754600849583342e-02
6.051903807615231e+00  1.1971440153329196e-01  7.4840785630918505e-02
6.071743486973948e+00  1.1719846244077753e-01  7.2778844713052820e-02
6.091583166332666e+00  1.1451794783087682e-01  7.7636168808921754e-02
6.111422845691383e+00  1.1930644916975691e-01  7.7778392967230242e-02
6.131262525050101e+00  1.1278570583413695e-01  8.5508736719921097e-02
6.151102204408818e+00  1.2047380178615241e-01  6.9007855020325415e-02
6.170941883767536e+00  1.1087410242697736e-01  7.2134678167034172e-02
6.190781563126253e+00  1.0662875927812260e-01  6.9658784353697462e-02
6.210621242484970e+00  1.1792011557424542e-01  7.3056800521447349e-02
6.230460921843687e+00  1.1411434774565377e-01  7.3512074173790784e-02
6.250300601202405e+00  1.2674300777178046e-01  7.3963739542106874e-02
6.270140280561122e+00  1.2601431213535005e-01  7.3958289763375734e-02
6.289979959919840e+00  1.1615406207898128e-01  7.3883237320881173e-02
6.309819639278557e+00  1.1444479112195863e-01  7.5381969173865096e-02
6.329659318637275e+00  1.1826046059394880e-01  7.8841459318600260e-02
6.349498997995992e+00  1.1782612346398960e-01  8.2401688755749394e-02
6.369338677354710e+00  1.2639735800462673e-01  7.5141388462948447e-02
6.389178356713427e+00  1.1779366632320334e-01  8.6236564306408955e-02
6.409018036072145e+00  1.2562720699698801e-01  8.1596632557107154e-02
6.428857715430862e+00  1.2585051578581527e-01  8.3464801046493772e-02
6.448697394789580e+00  1.3232769954258597e-01  7.2599248055090937e-02
6.468537074148297e+00  1.1789675190207177e-01  6.8493287542238462e-02
6.488376753507015e+00  1.1748271791512582e-01  7.9403097651445292e-02
6.508216432865732e+00  1.2830288275361929e-01  7.9624342619160904e-02
6.528056112224450e+00  1.1629774380565075e-01  6.9535885867399075e-02
6.547895791583167e+00  1.1097754420559000e-01  7.0742492980692129e-02
6.567735470941884e+00  1.2055430835473745e-01  8.0067003225833350e-02
6.587575150300601e+00  1.2268769951540161e-01  8.3623938642864354e-02
6.607414829659319e+00  1.1843739058552229e-01  8.5358573680951053e-02
6.627254509018036e+00  1.1856485479522146e-01  7.4120839614565878e-02
6.647094188376754e+00  1.1356992325730314e-01  8.1870733872628887e-02
6.666933867735471e+00  1.2906478800200152e-01  8.2054466155399533e-02
6.686773547094189e+00  1.2152406213970623e-01  7.8958640317719153e-02
6.706613226452906e+00  1.1784533804731057e-01  7.3995582272810792e-02
6.726452905811624e+00  1.2265954204412489e-01  7.3868616576432442e-02
6.746292585170341e+00  1.2488930107167563e-01  8.3229802068008896e-02
6.766132264529059e+00  1.1554282585026346e-01  7.1253223221843673e-02
6.785971943887776e+00  1.2197774640877024e-01  7.8325394815516522e-02
6.805811623246494e+00  1.1850684021005618e-01  8.0639045430066350e-02
6.825651302605211e+00  1.2923966163632958e-01  8.5538270831519686e-02
6.845490981963929e+00  1.2184824718155038e-01  7.8414563066075305e-02
6.865330661322646e+00  1.1549786254366293e-01  7.3384898338929999e-02
6.885170340681364e+00  1.2063378053432459e-01  8.2224678436119455e-02
6.905010020040081e+00  1.2350229869912095e-01  7.7023441315997282e-02
6.924849699398798e+00  1.3182804395010786e-01  8.9646537229069942e-02
6.944689378757515e+00  1.2159118501714898e-01  7.6556936604488049e-02
6.964529058116233e+00  1.2431956848144496e-01  8.1889300521281516e-02
6.984368737474950e+00  1.2753383147944466e-01  9.1384097385836596e-02
7.004208416833668e+00  1.2414269292351199e-01  8.6580428834585874e-02
7.024048096192385e+00  1.1731879399498280e-01  8.1363271529434053e-02
7.043887775551103e+00  1.2093118634711604e-01  8.3981757205876861e-02
7.063727454909820e+00  1.1851642798233199e-01  9.3737843551001482e-02
7.083567134268538e+00  1.2540849244808980e-01  8.8865631807987414e-02
7.103406813627255e+00  1.2964563652973937e-01  7.5358806703027859e-02
7.123246492985973e+00  1.2190379677281254e-01  8.3062876252330345e-02
7.143086172344690e+00  1.2735690475770356e-01  8.7602177846609064e-02
7.162925851703408e+00  1.1866903464594709e-01  7.4742350593408363e-02
7.182765531062125e+00  1.2301919502639307e-01  8.3998744702029546e-02
7.202605210420842e+00  1.2141033824243770e-01  8.2353455501345277e-02
7.222444889779560e+00  1.3051412225215420e-01  8.4275116606554359e-02
7.242284569138277e+00  1.2390291945096694e-01  7.8946937635947970e-02
7.262124248496995e+00  1.2634207556795926e-01  7.3976547135096771e-02
7.281963927855712e+00  1.2086812278058658e-01  7.7888550938652476e-02
7.301803607214429e+00  1.1947772477048835e-01  9.2764500783628939e-02
7.321643286573146e+00  1.2468907098526988e-01  8.2880776310430074e-02
7.341482965931864e+00  1.1869431716292865e-01  7.8911284388920505e-02
7.361322645290581e+00  1.1604895154774855e-01  9.1147805751050373e-02
7.381162324649299e+00  1.2141823849244962e-01  8.8543080577577857e-02
7.401002004008016e+00  1.3099605894313338e-01  7.9774903975461997e-02
7.420841683366734e+00  1.2111007756716985e-01  8.9602429661087640e-02
7.440681362725451e+00  1.2424745719928752e-01  8.9919521958298040e-02
7.460521042084169e+00  1.2024647283668108e-01  8.0638683561839994e-02
7.480360721442886e+00  1.1303501981740176e-01  8.7346914560399974e-02
7.500200400801604e+00  1.2336115720236336e-01  8.2933863259442062e-02
7.520040080160321e+00  1.3189949341838916e-01  9.1181711710218466e-02
7.539879759519039e+00  1.2184585939299880e-01  7.8757583199246098e-02
7.559719438877756e+00  1.1782521972791511e-01  8.3165511288197824e-02
7.579559118236474e+00  1.1869515757201501e-01  8.9452460346096982e-02
7.599398797595191e+00  1.2554217861606001e-01  8.5091230474967264e-02
7.619238476953909e+00  1.2169241760118392e-01  8.8511311841394574e-02
7.639078156312626e+00  1.2878516146615832e-01  9.4457575940908714e-02
7.658917835671343e+00  1.2256134012179011e-01  8.3778613379471817e-02
7.678757515030060e+00  1.1358579342763341e-01  8.0571897097615003e-02
7.698597194388778e+00  1.2188943711437010e-01  9.4003109069539098e-02
7.718436873747495e+00  1.2771992996686196e-01  8.4145398014811773e-02
7.738276553106213e+00  1.2936633580043841e-01  8.8064581205260603e-02
7.758116232464930e+00  1.3073240906107514e-01  8.3704157984454228e-02
7.777955911823648e+00  1.2938525184089025e-01  7.8910849834766261e-02
7.797795591182365e+00  1.2982265416101391e-01  8.2159053024574033e-02
7.817635270541083e+00  1.3400003993852969e-01  9.3597862242588134e-02
7.837474949899800e+00  1.3227635208119656e-01  8.5101949192058240e-02
7.857314629258518e+00  1.2555657835733600e-01  8.6567773512516710e-02
7.877154308617235e+00  1.2237262437716644e-01  8.8959942441595621e-02
7.896993987975953e+00  1.2342918023441711e-01  9.3484948661647652e-02
7.916833667334670e+00  1.2841591712864969e-01  8.8503984525497598e-02
7.936673346693388e+00  1.3101861360222039e-01  8.6590727909748963e-02
7.956513026052105e+00  1.2381504878279771e-01  8.3762027843636372e-02
7.976352705410823e+00  1.3269143524919447e-01  9.1079700458688323e-02
7.996192384769540e+00  1.2157871613928461e-01  7.7865364650504129e-02
8.016032064128257e+00  1.2295229644763926e-01  8.2573292184538780e-02
8.035871743486974e+00  1.2341982915156179e-01  9.2271157313695895e-02
8.055711422845691e+00  1.2212059397687781e-01  9.0965239579359147e-02
8.075551102204409e+00  1.2985574563259350e-01  8.2488078348465790e-02
8.095390781563127e+00  1.2464683356011498e-01  9.1698772426576744e-02
8.115230460921843e+00  1.3491610372707669e-01  9.1502468741384499e-02
8.135070140280561e+00  1.2570405945383265e-01  8.3375071600754871e-02
8.154909819639279e+00  1.3514251814476702e-01  8.9079172031327064e-02
8.174749498997997e+00  1.1373781947276543e-01  9.7590000021098577e-02
8.194589178356713e+00  1.2777341994502303e-01  8.7253467933330428e-02
8.214428857715431e+00  1.2745855764541836e-01  8.3124876958616409e-02
8.234268537074149e+00  1.3579401861053622e-01  9.0797933660286850e-02
8.254108216432867e+00  1.2750375656965277e-01  8.7344951278762351e-02
8.273947895791583e+00  1.3516813619082577e-01  8.8493778915812948e-02
8.293787575150301e+00  1.3581332842410521e-01  9.2479719192900156e-02
8.313627254509019e+00  1.2332551974397200e-01  9.0296341091010909e-02
8.333466933867737e+00  1.2055139330329313e-01  8.8804917434358061e-02
8.353306613226453e+00  1.3087335289299470e-01  8.5695116416620157e-02
8.373146292585171e+00  1.2258483227799688e-01  8.6894131396646410e-02
8.392985971943888e+00  1.2595241365028606e-01  8.6019477789400542e-02
8.412825651302606e+00  1.2396012585270252e-01  8.8252859195936201e-02
8.432665330661322e+00  1.2739854076364468e-01  1.0022295194389695e-01
8.452505010020040e+00  1.2995495718021693e-01  9.2300271307759196e-02
8.472344689378758e+00  1.3061232367519332e-01  8.8956891697288265e-02
8.492184368737476e+00  1.2780811084027227e-01  9.1206008775387828e-02
8.512024048096192e+00  1.2247408703956560e-01  9.3213640127792111e-02
8.531863727454910e+00  1.2305284444886884e-01  9.3509039448068501e-02
8.551703406813628e+00  1.2882797593693654e-01  9.3863925711682158e-02
8.571543086172346e+00  1.1652406256324412e-01  9.7864702395027037e-02
8.591382765531064e+00  1.2165257546719699e-01  9.0834256605423561e-02
8.611222444889778e+00  1.1977531211087039e-01  9.4470909369965037e-02
8.631062124248498e+00  1.2604390509777033e-01  8.9743906595433146e-02
8.650901803607214e+00  1.3018935371524779e-01  8.3683883096126649e-02
8.670741482965932e+00  1.3966673176578326e-01  9.0260596388484229e-02
8.690581162324650e+00  1.2790220410879044e-01  1.0035180172160194e-01
8.710420841683367e+00  1.2266463106831980e-01  9.1630568915609362e-02
8.730260521042084e+00  1.2581518623744761e-01  9.8654562855998162e-02
8.750100200400801e+00  1.3045426894419637e-01  9.6695870214572321e-02
8.769939879759519e+00  1.3335275325481402e-01  9.0842116209386231e-02
8.789779559118237e+00  1.2602862577246962e-01  1.0353673365592804e-01
8.809619238476953e+00  1.2838155469005391e-01  9.8478689083977125e-02
8.829458917835671e+00  1.3441464036541828e-01  9.8765975158150526e-02
8.849298597194389e+00  1.2968487996684358e-01  8.9846465572285705e-02
8.869138276553107e+00  1.2904911817001902e-01  9.1300788712962752e-02
8.888977955911823e+00  1.2707291694325068e-01  9.7909891580653052e-02
8.908817635270541e+00  1.2688633393662316e-01  1.0081793705664939e-01
8.928657314629259e+00  1.3418083528371277e-01  9.4828749543652294e-02
8.948496993987977e+00  1.2631398486013917e-01  1.0366178426077401e-01
8.968336673346693e+00  1.2881751696984359e-01  9.4604552854066562e-02
8.988176352705411e+00  1.2396648156999467e-01  9.8975238905750731e-02
9.008016032064129e+00  1.3223613590676200e-01  9.5543196175500028e-02
9.027855711422847e+00  1.3054524150122984e-01  1.0113749212261933e-01
9.047695390781563e+00  1.3158915289909101e-01  9.4173691909481827e-02
9.067535070140281e+00  1.2932899737132947e-01  9.5793490366711267e-02
9.087374749498998e+00  1.2583545183616474e-01  8.8550143677235280e-02
9.107214428857716e+00  1.2920180425556521e-01  9.7744268356848754e-02
9.127054108216432e+00  1.2329039001090596e-01  9.6822926959552399e-02
9.146893787575150e+00  1.2810063260028254e-01  9.9155948793912235e-02
9.166733466933868e+00  1.4141235603002020e-01  9.8347666216353297e-02
9.186573146292586e+00  1.3832088882572913e-01  9.3451161041971154e-02
9.206412825651302e+00  1.3438123633804241e-01  1.0025916542314017e-01
9.226252505010020e+00  1.3231583469245964e-01  1.1013087106727147e-01
9.246092184368738e+00  1.3434156323393773e-01  9.4013840928763442e-02
9.265931863727456e+00  1.3223968266274919e-01  1.0202363342115880e-01
9.285771543086172e+00  1.3503444064635464e-01  9.4614388576797950e-02
9.305611222444890e+00  1.3648813432724236e-01  9.3102070573108389e-02
9.325450901803608e+00  1.2543677781087476e-01  9.2171088219045627e-02
9.345290581162326e+00  1.2967198481312589e-01  1.0080289900100958e-01
9.365130260521042e+00  1.3057516079015263e-01  9.8233157399701676e-02
9.384969939879760e+00  1.2801942098183100e-01  1.0257627287999932e-01
9.404809619238478e+00  1.2590831530909044e-01  9.7398514383156859e-02
9.424649298597195e+00  1.3732416942115641e-01  9.2612538088966245e-02
9.444488977955912e+00  1.3438708626479351e-01  9.7638336402362594e-02
9.464328657314629e+00  1.2657870756878783e-01  9.8401931226723416e-02
9.484168336673347e+00  1.2595388190739215e-01  1.0197342089028369e-01
9.504008016032065e+00  1.3343806903448824e-01  9.2999865350277960e-02
9.523847695390781e+00  1.2794279723922894e-01  8.9976964035476892e-02
9.543687374749499e+00  1.2548052478632024e-01  1.0162733862899155e-01
9.563527054108217e+00  1.3031987857126570e-01  9.5590886795644592e-02
9.583366733466935e+00  1.2741876234077587e-01  9.7160194924211254e-02
9.603206412825651e+00  1.3597589492047693e-01  1.0250637609158723e-01
9.623046092184369e+00  1.4334616548516904e-01  9.9986481196771795e-02
9.642885771543087e+00  1.2339414378113649e-01  1.0085975363729048e-01
9.662725450901805e+00  1.3617214245597148e-01  1.0609691645008928e-01
9.682565130260521e+00  1.3418262563636507e-01  1.0564514962896161e-01
9.702404809619239e+00  1.2794363428026359e-01  1.0047375718505271e-01
9.722244488977957e+00  1.3705076389982765e-01  9.7937563243260195e-02
9.742084168336675e+00  1.2788677615178312e-01  9.4767060909512799e-02
9.761923847695391e+00  1.2300368979674237e-01  1.0245485672696690e-01
9.781763527054109e+00  1.2688476843839155e-01  1.1258140231852083e-01
9.801603206412826e+00  1.3547867049244405e-01  1.0639134137047589e-01
9.821442885771544e+00  1.3472603133393155e-01  1.0242061861051532e-01
9.841282565130260e+00  1.3777449324652161e-01  9.5946213586461479e-02
9.861122244488978e+00  1.3530193442244473e-01  9.5446137500440217e-02
9.880961923847696e+00  1.3923680385737688e-01  9.9065051449079886e-02
9.900801603206414e+00  1.2299803881487989e-01  8.3143941197681287e-02
9.920641282565130e+00  1.3158676385704032e-01  1.0408141655557915e-01
9.940480961923848e+00  1.3138056673708093e-01  1.0835151667159469e-01
9.960320641282566e+00  1.3299456939597265e-01  1.0282647908612327e-01
9.980160320641284e+00  1.3870742527605476e-01  1.0077760259982574e-01
1.000000000000000e+01  1.3007701399550614e-01  1.0931690751510367e-01
