# GHz S RI R 50

1.000000000000000e-01 -2.5849359355333157e-01  3.1446728286827824e-01
1.198396793587174e-01 -2.1957155215933552e-01  3.1936589299907098e-01
1.396793587174349e-01 -1.8024874446229419e-01  3.1224557438431821e-01
1.595190380761523e-01 -1.4957943722013448e-01  3.0148540293797993e-01
1.793587174348698e-01 -1.1606021942432998e-01  2.9263082901458137e-01
1.991983967935872e-01 -9.9399203607396833e-02  2.7976060998341901e-01
2.190380761523046e-01 -8.0569040039000728e-02  2.7658779429087310e-01
2.388777555110221e-01 -5.4869705175635379e-02  2.5945672886667553e-01
2.587174348697395e-01 -4.4353349337097753e-02  2.5071559485301015e-01
2.785571142284569e-01 -2.6906983671352330e-02  2.4963182094668485e-01
2.983967935871744e-01 -1.8551564427430268e-02  2.4609663343104307e-01
3.182364729458918e-01 -4.8903401125829117e-03  2.2775931107228214e-01
3.380761523046092e-01 -9.6839546589373958e-03  2.1956737876967675e-01
3.579158316633266e-01  1.3826055122168378e-02  2.1690608283598753e-01
3.777555110220441e-01  2.8239660581028961e-02  2.1336368051229135e-01
3.975951903807615e-01  3.0873989122658187e-02  2.0632938127631981e-01
4.174348697394790e-01  3.6265107147541720e-02  1.9666498147550945e-01
4.372745490981964e-01  3.5955123350675161e-02  1.8628874182279062e-01
4.571142284569139e-01  4.2982871035995511e-02  1.8706172558307280e-01
4.769539078156313e-01  4.7765147197719952e-02  1.7825822800312380e-01
4.967935871743487e-01  5.1086437111142781e-02  1.8055391668184223e-01
5.166332665330662e-01  5.0152845552714834e-02  1.6190053456798686e-01
5.364729458917836e-01  5.5924389917378414e-02  1.6516278169759785e-01
5.563126252505010e-01  5.9906495989791336e-02  1.6664847257152593e-01
5.761523046092184e-01  6.1216238050534270e-02  1.5368302942027562e-01
5.959919839679358e-01  7.0413660073798318e-02  1.4919311533262924e-01
6.158316633266533e-01  8.1325246830547232e-02  1.4399815798223389e-01
6.356713426853707e-01  6.4235352585703578e-02  1.4379996282257942e-01
6.555110220440882e-01  7.3544804415865944e-02  1.4088571615122414e-01
6.753507014028056e-01  6.7590823372856587e-02  1.3942431158078816e-01
6.951903807615231e-01  8.3077591356165673e-02  1.3132430778875648e-01
7.150300601202405e-01  8.5252261398275256e-02  1.3329365824668829e-01
7.348697394789580e-01  7.1414199999878109e-02  1.2713285129266813e-01
7.547094188376754e-01  9.0866138876929209e-02  1.2570359755440677e-01
7.745490981963928e-01  7.7050595290188970e-02  1.2086808033402932e-01
7.943887775551103e-01  8.4848174105238247e-02  1.2126833054745391e-01
8.142284569138277e-01  9.0369571055822842e-02  1.3825573877931865e-01
8.340681362725452e-01  8.6699079979564733e-02  1.3526792851869621e-01
8.539078156312626e-01  9.8462913666088961e-02  1.2188152868983040e-01
8.737474949899801e-01  1.0170736431621898e-01  1.1808769295325210e-01
8.935871743486975e-01  8.9539496547135652e-02  1.0584829324640342e-01
9.134268537074149e-01  8.0163604487214490e-02  1.0748231863085507e-01
9.332665330661324e-01  8.8676644375199856e-02  1.0554919194952321e-01
9.531062124248498e-01  8.7018973110101261e-02  1.0963445859379645e-01
9.729458917835673e-01  8.8152183669238285e-02  1.0775182661423389e-01
9.927855711422846e-01  8.7015403456257245e-02  1.0432204309694020e-01
1.012625250501002e+00  9.3686976908689254e-02  1.0058170149772429e-01
1.032464929859719e+00  1.0443805943560826e-01  9.6215058716843341e-02
1.052304609218437e+00  9.0903563420282329e-02  9.9487020865952625e-02
1.072144288577154e+00  9.3629219606768163e-02  1.0382459283733501e-01
1.091983967935872e+00  1.0138620580803817e-01  9.8983947422802615e-02
1.111823647294589e+00  1.0211477853898020e-01  9.6518147195624959e-02
1.131663326653306e+00  9.8951657121868986e-02  9.7711601614368981e-02
1.151503006012024e+00  1.0210526048265810e-01  9.6199966234990622e-02
1.171342685370741e+00  1.0175936849806602e-01  8.4092400732342684e-02
1.191182364729459e+00  9.5908127848835595e-02  9.1204005996346843e-02
1.211022044088176e+00  1.0035436775998172e-01  8.7953641880129399e-02
1.230861723446894e+00  9.7090142342853444e-02  7.8922826902579693e-02
1.250701402805611e+00  9.4446271921438341e-02  8.1494384927950178e-02
1.270541082164329e+00  1.0246403572415816e-01  8.5615115011250395e-02
1.290380761523046e+00  9.9958024529359216e-02  9.0450923776323813e-02
1.310220440881763e+00  9.9002174661096981e-02  8.4317063594424271e-02
1.330060120240481e+00  1.0170077000288823e-01  8.5943828972000258e-02
1.349899799599198e+00  1.0547300599942373e-01  7.9339842812494676e-02
1.369739478957916e+00  1.0278031181321708e-01  7.2267398367941812e-02
1.389579158316633e+00  1.0205882698893642e-01  8.2773616526964605e-02
1.409418837675351e+00  1.0274532831438159e-01  7.6823192459484629e-02
1.429258517034068e+00  1.0185328082440283e-01  8.6741109142055545e-02
1.449098196392786e+00  9.7966571547052503e-02  8.8875784463830598e-02
1.468937875751503e+00  1.0600595602743745e-01  7.7686193781683080e-02
1.488777555110220e+00  1.0934159195563523e-01  8.4874765512668454e-02
1.508617234468938e+00  9.9843855381803251e-02  8.3065075643803027e-02
1.528456913827655e+00  1.1236310382698017e-01  7.0627877868077643e-02
1.548296593186373e+00  1.0204607687137222e-01  7.6961747686609724e-02
1.568136272545090e+00  1.0190495060539793e-01  7.7878032604985076e-02
1.587975951903808e+00  9.8825796737616198e-02  7.8649169748032113e-02
1.607815631262525e+00  9.9536229058243775e-02  7.8897105578783280e-02
1.627655310621243e+00  9.8911457276017967e-02  7.8380754781040160e-02
1.647494989979960e+00  1.0561885112031724e-01  7.7912443218329894e-02
1.667334669338677e+00  1.1200228076629054e-01  7.2484749230136786e-02
1.687174348697395e+00  1.0681739994174667e-01  7.5486077618321448e-02
1.707014028056112e+00  1.0860926263527865e-01  6.1882096380293398e-02
1.726853707414830e+00  1.1120120522396344e-01  6.6875607891358851e-02
1.746693386773547e+00  9.2143750348340936e-02  7.8311555531665258e-02
1.766533066132265e+00  1.0394898280231665e-01  6.8595558816261878e-02
1.786372745490982e+00  1.0669331792825937e-01  7.3147313629357558e-02
1.806212424849700e+00  1.0865224555820932e-01  7.8672763831511131e-02
1.826052104208417e+00  9.8675892456621853e-02  6.6322154225997340e-02
1.845891783567134e+00  1.0030157378825792e-01  6.5616439619735484e-02
1.865731462925852e+00  1.0941184603910901e-01  6.7606670416462039e-02
1.885571142284569e+00  1.0499996502304804e-01  7.1943855553953356e-02
1.905410821643287e+00  1.0846968046297049e-01  6.8393633082516128e-02
1.925250501002004e+00  1.0101955966583796e-01  6.4217564294199003e-02
1.945090180360721e+00  9.7769588378562575e-02  6.0940972578400567e-02
1.964929859719439e+00  1.0985779725861063e-01  6.6663176695972298e-02
1.984769539078156e+00  1.1212901520984098e-01  6.7126930012790950e-02
2.004609218436874e+00  1.1443104131027355e-01  6.5283891660782051e-02
2.024448897795591e+00  9.8715774314321519e-02  6.6386260671606356e-02
2.044288577154309e+00  9.9796213215241264e-02  6.1963831261908103e-02
2.064128256513026e+00  9.9212871569674094e-02  6.9940236448167048e-02
2.083967935871744e+00  1.0647337936939567e-01  5.6082277062502864e-02
2.103807615230461e+00  1.0370179263090980e-01  6.7447688992806384e-02
2.123647294589178e+00  1.1344586011178882e-01  6.9846728802163985e-02
2.143486973947896e+00  9.9693706909317767e-02  6.2041864429623984e-02
2.163326653306613e+00  9.8349515933830345e-02  6.5792310847106447e-02
2.183166332665331e+00  1.0817834444551032e-01  6.7335553415659291e-02
2.203006012024048e+00  1.1320543411841501e-01  6.2609312934926345e-02
2.222845691382766e+00  1.0331409232890819e-01  6.5426715930710699e-02
2.242685370741483e+00  1.0108597580660610e-01  6.7374594178651798e-02
2.262525050100200e+00  1.0675203290487009e-01  6.0453773854023819e-02
2.282364729458918e+00  9.9399624517939933e-02  6.9147039768118562e-02
2.302204408817635e+00  1.0775043689119099e-01  7.0281759944875427e-02
2.322044088176352e+00  1.1188624809631362e-01  6.6258712480309276e-02
2.341883767535070e+00  1.0891238772763520e-01  6.4577895064081195e-02
2.361723446893787e+00  9.8355689594809045e-02  5.8535028602364293e-02
2.381563126252505e+00  1.0529490140569725e-01  6.6692355916740526e-02
2.401402805611222e+00  1.0654486633418822e-01  5.8004934986880897e-02
2.421242484969940e+00  1.1719791759971165e-01  7.1909385014700664e-02
2.441082164328657e+00  1.1277824590820154e-01  6.6464197749852710e-02
2.460921843687375e+00  1.0799160256952953e-01  6.5037283548858293e-02
2.480761523046092e+00  1.1489591059885834e-01  6.1631442213747736e-02
2.500601202404809e+00  1.0319662492426424e-01  5.2608881424561084e-02
2.520440881763527e+00  1.0674931746369236e-01  5.7407807616141483e-02
2.540280561122244e+00  1.1562298027422649e-01  6.5112910774808033e-02
2.560120240480962e+00  1.1614081866383358e-01  7.5253109881971800e-02
2.579959919839679e+00  1.1234874995832339e-01  6.6801092186892522e-02
2.599799599198397e+00  1.1121786242592552e-01  6.4561787150133693e-02
2.619639278557114e+00  1.0589999419892034e-01  6.0220460845997602e-02
2.639478957915832e+00  1.1262096634133216e-01  6.3463204226036074e-02
2.659318637274549e+00  1.0482088143037500e-01  6.7588536722941642e-02
2.679158316633266e+00  1.1189881782707789e-01  6.1436490594672058e-02
2.698997995991984e+00  1.1049937247803804e-01  7.2098157773675939e-02
2.718837675350701e+00  1.1485006476387392e-01  5.6474826076452149e-02
2.738677354709419e+00  1.0708700063443534e-01  6.0635255858751909e-02
2.758517034068136e+00  1.1245930569915957e-01  6.2722480207688544e-02
2.778356713426854e+00  1.1330624355955977e-01  5.2638031252707905e-02
2.798196392785571e+00  1.0490971489650375e-01  6.5185566724309058e-02
2.818036072144289e+00  1.1024359158875542e-01  6.2701527533578494e-02
2.837875751503006e+00  1.1750894192917169e-01  6.2673410110374875e-02
2.857715430861723e+00  1.1014473191935688e-01  6.6203981997724815e-02
2.877555110220441e+00  1.0809884294833468e-01  6.7412550279179750e-02
2.897394789579158e+00  1.1198428986956296e-01  6.6171751141767640e-02
2.917234468937876e+00  1.0838411794710189e-01  5.9786425524221400e-02
2.937074148296593e+00  1.1203359207758216e-01  6.1870241186108080e-02
2.956913827655311e+00  1.0920193705748124e-01  6.3846000908302378e-02
2.976753507014028e+00  1.0984166149098647e-01  5.5773084800077817e-02
2.996593186372746e+00  1.1229445509278047e-01  5.6858045234527151e-02
3.016432865731463e+00  1.1685896962472009e-01  5.9887211877073132e-02
3.036272545090180e+00  1.1236334166716697e-01  6.2396846237603415e-02
3.056112224448898e+00  1.1840216859349581e-01  7.0952234187922777e-02
3.075951903807615e+00  1.0007443928161654e-01  6.5975530351292458e-02
3.095791583166333e+00  1.0802569306030185e-01  5.9770844944249689e-02
3.115631262525050e+00  1.1150741198649299e-01  5.8834481047464041e-02
3.135470941883768e+00  1.0620680205735132e-01  6.9647912477829713e-02
3.155310621242485e+00  1.0405787485260695e-01  7.5647988431436358e-02
3.175150300601203e+00  1.1357758328248205e-01  6.2821153247569747e-02
3.194989979959920e+00  1.1361045620537304e-01  5.9595575525457016e-02
3.214829659318637e+00  1.1204818875480181e-01  5.4934804865227956e-02
3.234669338677355e+00  1.1263200093529152e-01  6.6883375213265595e-02
3.254509018036072e+00  1.0635655579219119e-01  6.3469537527937672e-02
3.274348697394790e+00  1.0827469912247061e-01  6.7862598785467021e-02
3.294188376753507e+00  1.1028338299710744e-01  5.7508712798829430e-02
3.314028056112225e+00  1.0743103599531788e-01  6.3273829921019792e-02
3.333867735470942e+00  1.1258287237849397e-01  5.8821430371698825e-02
3.353707414829660e+00  1.2280273272407997e-01  6.8489099316824814e-02
3.373547094188377e+00  1.0861845886179912e-01  5.9382960047367518e-02
3.393386773547094e+00  1.1431972685748712e-01  6.1728342574928367e-02
3.413226452905812e+00  1.0596311281544506e-01  6.0454612696599484e-02
3.433066132264529e+00  1.1788564424489811e-01  6.7193674866523306e-02
3.452905811623247e+00  1.0639469546895876e-01  6.4397979221985716e-02
3.472745490981964e+00  1.1233639905040411e-01  5.7268564804818373e-02
3.492585170340682e+00  1.0825218233870532e-01  5.9161470490547971e-02
3.512424849699399e+00  1.1395746596793346e-01  5.7133474215494771e-02
3.532264529058116e+00  1.1150631390811154e-01  6.4929339615831139e-02
3.552104208416834e+00  1.1128167782806153e-01  6.4100990782823192e-02
3.571943887775551e+00  1.2629908994216926e-01  5.4306186115461820e-02
3.591783567134269e+00  1.0845533651715678e-01  5.2992655543813869e-02
3.611623246492986e+00  1.1142305015578173e-01  6.2370025028743503e-02
3.631462925851704e+00  1.2512439908988776e-01  6.6104675076629829e-02
3.651302605210421e+00  1.0602759234876435e-01  6.3510912899852140e-02
3.671142284569138e+00  1.1457776861637420e-01  5.4997586401087664e-02
3.690981963927856e+00  1.0648217168538979e-01  5.5008675624170528e-02
3.710821643286573e+00  1.1706931495853481e-01  6.7155623397214689e-02
3.730661322645290e+00  1.1360538847670963e-01  6.2147319595011616e-02
3.750501002004008e+00  1.1527995939398550e-01  6.0998306434817427e-02
3.770340681362725e+00  1.1067660358263248e-01  6.9567222693925526e-02
3.790180360721443e+00  1.1334842310250057e-01  5.9061903146887196e-02
3.810020040080160e+00  1.1953657476422307e-01  6.3780766108217743e-02
3.829859719438878e+00  1.0085003217538392e-01  6.5253217683640299e-02
3.849699398797595e+00  1.0411061296678906e-01  6.7325480285650621e-02
3.869539078156313e+00  1.1440593597022218e-01  5.9017461267481836e-02
3.889378757515030e+00  1.0910627341104150e-01  6.5140196549388019e-02
3.909218436873747e+00  1.1094990777282042e-01  7.7161521324800128e-02
3.929058116232465e+00  1.0499859545005558e-01  5.5921078549219697e-02
3.948897795591182e+00  1.0801057029717398e-01  6.5723804609379266e-02
3.968737474949900e+00  1.1056540305589252e-01  6.2474168957322919e-02
3.988577154308617e+00  1.0900890698349218e-01  5.9557807827512479e-02
4.008416833667335e+00  1.0835708166044476e-01  5.9604674629094613e-02
4.028256513026053e+00  1.1063190687279696e-01  6.6326531470354985e-02
4.048096192384770e+00  1.0807947114950442e-01  7.5488691697392044e-02
4.067935871743487e+00  1.1955391427783565e-01  6.0016023852879699e-02
4.087775551102204e+00  1.0795404881697689e-01  6.6765588690697084e-02
4.107615230460922e+00  1.2203769903843237e-01  6.1342153492428921e-02
4.127454909819639e+00  1.1112760502201376e-01  7.4097974906835312e-02
4.147294589178357e+00  1.0579292877071531e-01  6.7017129983249740e-02
4.167134268537074e+00  1.1001011207150668e-01  6.3683967505712688e-02
4.186973947895792e+00  1.1782796157995394e-01  6.7553509183340063e-02
4.206813627254509e+00  1.1848708806367719e-01  6.4507806423104413e-02
4.226653306613227e+00  1.1406061490328046e-01  7.0154244903709861e-02
4.246492985971944e+00  1.1474857089679828e-01  6.3773751110902249e-02
4.266332665330662e+00  1.1652824424848211e-01  5.9178976105895356e-02
4.286172344689379e+00  1.0612071257450069e-01  6.6103572956332110e-02
4.306012024048096e+00  1.1055963948038337e-01  7.2762654820595227e-02
4.325851703406814e+00  1.0436977040476103e-01  5.9061373122291101e-02
4.345691382765532e+00  1.1132739527977896e-01  6.3920624937625153e-02
4.365531062124249e+00  1.1837174460262198e-01  7.0245205492283136e-02
4.385370741482966e+00  1.1726510721549449e-01  5.5709980045754386e-02
4.405210420841684e+00  1.2516964284644769e-01  6.8528200968561062e-02
4.425050100200401e+00  1.1461681019208200e-01  6.9256943534297136e-02
4.444889779559118e+00  1.0305346437711058e-01  6.6651523593369968e-02
4.464729458917835e+00  1.2233573688723726e-01  6.1825681086666917e-02
4.484569138276553e+00  1.2035304396217887e-01  6.5734695399293552e-02
4.504408817635270e+00  1.1108146460944200e-01  6.6330578020998662e-02
4.524248496993988e+00  1.1516075199130997e-01  7.0635926475573430e-02
4.544088176352705e+00  1.1799807964654116e-01  6.9373022367068493e-02
4.563927855711423e+00  1.1607758484698089e-01  6.4400758178068465e-02
4.583767535070140e+00  1.1768919604062071e-01  7.4348513235026850e-02
4.603607214428858e+00  1.1369718305834915e-01  6.6092870370680706e-02
4.623446893787575e+00  1.1412013027285914e-01  6.2382155291856693e-02
4.643286573146293e+00  1.1480826974079478e-01  6.4352830602133634e-02
4.663126252505010e+00  1.1047321580616445e-01  7.0937944742183873e-02
4.682965931863728e+00  1.2159006043388505e-01  6.7721603991276552e-02
4.702805611222445e+00  1.1456077131748296e-01  7.1291120032212676e-02
4.722645290581163e+00  1.1801546784906353e-01  6.7294849222706649e-02
4.742484969939880e+00  1.1036244254655185e-01  7.9485414139264132e-02
4.762324649298598e+00  1.0931507882954498e-01  5.8826286742810832e-02
4.782164328657315e+00  1.1429066263616085e-01  6.5178675732189037e-02
4.802004008016032e+00  1.1353598312261413e-01  6.6941614977742911e-02
4.821843687374749e+00  1.2082840581439887e-01  6.7914020971425654e-02
4.841683366733467e+00  1.1793915183195397e-01  7.4854112509178422e-02
4.861523046092184e+00  1.1766605518922785e-01  6.8776842936488572e-02
4.881362725450902e+00  1.0779353993818945e-01  6.7211963131014352e-02
4.901202404809619e+00  1.1023462723172338e-01  6.8236702773519328e-02
4.921042084168337e+00  1.1613831843008786e-01  7.1759064639541917e-02
4.940881763527054e+00  1.1344374453824949e-01  6.4662905916705149e-02
4.960721442885772e+00  1.2168875515441348e-01  7.0473103056136646e-02
4.980561122244489e+00  1.2199937414935427e-01  6.0503441119684094e-02
5.000400801603207e+00  1.1244501640395184e-01  6.8044641804894460e-02
5.020240480961924e+00  1.1978019347269779e-01  6.3840238836992955e-02
5.040080160320642e+00  1.2243738717436831e-01  6.5395981276533705e-02
5.059919839679359e+00  1.1712079861979327e-01  7.0184530723235841e-02
5.079759519038077e+00  1.2368863287325468e-01  6.3258583460962831e-02
5.099599198396794e+00  1.2093984928581425e-01  6.4051693773003279e-02
5.119438877755512e+00  1.1675428594492340e-01  6.1530340368151755e-02
5.139278557114229e+00  1.2012396838244073e-01  5.8080629339692838e-02
5.159118236472946e+00  1.1676829637939515e-01  6.8579591724261146e-02
5.178957915831663e+00  1.1377822651747997e-01  7.5265404530694066e-02
5.198797595190381e+00  1.1770152471720784e-01  6.8656941505223223e-02
5.218637274549098e+00  1.1614700652469005e-01  6.8512246660787951e-02
5.238476953907816e+00  1.1419951855106721e-01  6.4564180272815713e-02
5.258316633266533e+00  1.2493467314200708e-01  7.7830719836402523e-02
5.278156312625251e+00  1.1724296189325123e-01  6.8783765552782275e-02
5.297995991983968e+00  1.2984562666692359e-01  7.6618061213581834e-02
5.317835671342686e+00  1.1477017554585758e-01  7.2075420668913925e-02
5.337675350701403e+00  1.1912986605082052e-01  6.9068225622341120e-02
5.357515030060121e+00  1.2427900010474387e-01  7.5912587157711750e-02
5.377354709418838e+00  1.3006967912015091e-01  7.5532814825995054e-02
5.397194388777556e+00  1.1799910537100998e-01  7.0182601254774116e-02
5.417034068136273e+00  1.1258787130229637e-01  7.7339143188086934e-02
5.436873747494991e+00  1.2061406935581150e-01  7.9885818572633313e-02
5.456713426853708e+00  1.1005578443909395e-01  7.0771603874255379e-02
5.476553106212426e+00  1.1534432464673874e-01  6.9941983935725774e-02
5.496392785571143e+00  1.1813126974693564e-01  7.3364658991411577e-02
5.516232464929860e+00  1.2427821102286728e-01  7.3221696635221267e-02
5.536072144288577e+00  1.2407478654222864e-01  7.5622272406668384e-02
5.555911823647295e+00  1.1681003488524153e-01  7.0428923381708253e-02
5.575751503006012e+00  1.2162638932293632e-01  7.5404950470035745e-02
5.595591182364730e+00  1.1545934985852881e-01  7.7195223430743032e-02
5.615430861723447e+00  1.2043052432272386e-01  7.2963172117887498e-02
5.635270541082165e+00  1.2676064662030692e-01  7.2965445123232470e-02
5.655110220440882e+00  1.1802738148275610e-01  6.6051191801672807e-02
5.674949899799600e+00  1.1580043747797579e-01  6.6582992854734999e-02
5.694789579158317e+00  1.1486261238925466e-01  6.5264291865712046e-02
5.714629258517035e+00  1.2100494019974990e-01  6.6474881086016332e-02
5.734468937875752e+00  1.2416895479006163e-01  7.2045956014637452e-02
5.754308617234470e+00  1.2817096990104243e-01  6.4872323045423383e-02
5.774148296593187e+00  1.1787298956127361e-01  8.4302960055736217e-02
5.793987975951904e+00  1.1847826245884917e-01  7.6895080811797523e-02
5.813827655310622e+00  1.1456000344064239e-01  6.2986783563313317e-02
5.833667334669339e+00  1.2584408120375751e-01  6.7678882866732459e-02
5.853507014028057e+00  1.1746759930843767e-01  7.3042587793783531e-02
5.873346693386774e+00  1.1553950925414397e-01  6.5141345071390119e-02
5.893186372745491e+00  1.2888788405026602e-01  7.1533738969849256e-02
5.913026052104208e+00  1.2207720413924308e-01  7.9415957229982459e-02
5.932865731462926e+00  1.2167076470246604e-01  7.3269570368149253e-02
5.952705410821643e+00  1.1312258088962596e-01  7.3881050245499111e-02
5.972545090180361e+00  1.2038188953492560e-01  6.9337833416351288e-02
5.992384769539078e+00  1.2087432857504420e-01  7.1696289911919245e-02
6.012224448897796e+00  1.1287417660731593e-01  6.7845871482492784e-02
6.032064128256513e+00  1.1726835015106174e-01  7.6554016743574912e-02
6.051903807615231e+00  1.1643477156484605e-01  7.2601476264110662e-02
6.071743486973948e+00  1.2116086956386261e-01  7.8909141904045729e-02
6.091583166332666e+00  1.1354908737999848e-01  8.1308533092812177e-02
6.111422845691383e+00  1.2409149910797120e-01  8.0638615063007762e-02
6.131262525050101e+00  1.2763333786698364e-01  7.5208925857397094e-02
6.151102204408818e+00  1.1725292641394036e-01  7.2993931698244224e-02
6.170941883767536e+00  1.1879108635996709e-01  6.9524736557375302e-02
6.190781563126253e+00  1.2143075108918699e-01  7.6368562718173924e-02
6.210621242484970e+00  1.2497697840769410e-01  8.0704790169365881e-02
6.230460921843687e+00  1.2163408581538081e-01  7.4334392041803268e-02
6.250300601202405e+00  1.2107264264582812e-01  7.5304287114767332e-02
6.270140280561122e+00  1.1673690942891765e-01  7.9384425605602146e-02
6.289979959919840e+00  1.1805716564086007e-01  8.0754770810132617e-02
6.309819639278557e+00  1.2234540229635747e-01  6.9483057491930247e-02
6.329659318637275e+00  1.2775669027261327e-01  7.7700042863233926e-02
6.349498997995992e+00  1.2224850364184744e-01  7.7812269401707226e-02
6.369338677354710e+00  1.1344062459353772e-01  7.6210519495585813e-02
6.389178356713427e+00  1.2170044489169637e-01  8.1563340019658398e-02
6.409018036072145e+00  1.1913904835060060e-01  7.5411894330816534e-02
6.428857715430862e+00  1.1844402368248809e-01  7.3235513352873885e-02
6.448697394789580e+00  1.1863313853298234e-01  7.8880307422953350e-02
6.468537074148297e+00  1.1539516899744831e-01  7.9933211230844861e-02
6.488376753507015e+00  1.1825503899398045e-01  7.6680842116464393e-02
6.508216432865732e+00  1.1600217954820183e-01  8.1883315177764190e-02
6.528056112224450e+00  1.1816477617618371e-01  7.0447083751668971e-02
6.547895791583167e+00  1.2064141191716322e-01  7.2797276337632041e-02
6.567735470941884e+00  1.2099236521318812e-01  6.2945863706611482e-02
6.587575150300601e+00  1.1910812992287902e-01  8.1048722505754414e-02
6.607414829659319e+00  1.1948923733866240e-01  7.3621723296330349e-02
6.627254509018036e+00  1.2048675613558202e-01  7.7446525687337037e-02
6.647094188376754e+00  1.2267588393053157e-01  8.3893949142018892e-02
6.666933867735471e+00  1.2685892445370875e-01  7.9238304518075897e-02
6.686773547094189e+00  1.2361765164087220e-01  7.6916852172865827e-02
6.706613226452906e+00  1.1915040269591519e-01  7.5012588913456246e-02
6.726452905811624e+00  1.2364055879575317e-01  7.8189147123658473e-02
6.746292585170341e+00  1.1948966265093071e-01  8.2541856926749771e-02
6.766132264529059e+00  1.1188062353401708e-01  7.2082290587690806e-02
6.785971943887776e+00  1.0911523421360422e-01  7.9458303720214910e-02
6.805811623246494e+00  1.1235071236376898e-01  8.3848633885325416e-02
6.825651302605211e+00  1.1980044858387989e-01  7.2969796882868698e-02
6.845490981963929e+00  1.1795548935339616e-01  8.3557140400255719e-02
6.865330661322646e+00  1.1752048754921404e-01  8.3763515214025072e-02
6.885170340681364e+00  1.2139238378624466e-01  7.6073794966797670e-02
6.905010020040081e+00  1.1796213666241474e-01  7.3099200912362119e-02
6.924849699398798e+00  1.1817255190768254e-01  8.2924832634951262e-02
6.944689378757515e+00  1.2444147313265144e-01  8.4937925321300789e-02
6.964529058116233e+00  1.2537338042843352e-01  8.3928965800497496e-02
6.984368737474950e+00  1.3371312251234757e-01  8.4986266485865505e-02
7.004208416833668e+00  1.2311087014685167e-01  7.5399244427518136e-02
7.024048096192385e+00  1.2195920181811662e-01  8.4367088452179467e-02
7.043887775551103e+00  1.1886583930655235e-01  7.8685881591590415e-02
7.063727454909820e+00  1.2082949070839351e-01  7.8917281601900965e-02
7.083567134268538e+00  1.2162207688334345e-01  7.4082928206815196e-02
7.103406813627255e+00  1.1316517552077718e-01  8.7501849482164246e-02
7.123246492985973e+00  1.2072671688708436e-01  8.3014596826808992e-02
7.143086172344690e+00  1.2583080546765985e-01  8.7295959553811198e-02
7.162925851703408e+00  1.1929900221212075e-01  8.9971639183019703e-02
7.182765531062125e+00  1.2469385495617742e-01  7.6869194170519586e-02
7.202605210420842e+00  1.2724989111252638e-01  8.5909366095418327e-02
7.222444889779560e+00  1.2774852676726400e-01  8.2769450629357255e-02
7.242284569138277e+00  1.2631730882686698e-01  8.7543616241870403e-02
7.262124248496995e+00  1.1120430797967706e-01  8.8649945464911395e-02
7.281963927855712e+00  1.1975217235807122e-01  8.7353071232970980e-02
7.301803607214429e+00  1.2715219514705589e-01  7.9301980668928573e-02
7.321643286573146e+00  1.2468893377285696e-01  8.2897022401788631e-02
7.341482965931864e+00  1.2281078226420387e-01  8.4989652712762515e-02
7.361322645290581e+00  1.2504219310269787e-01  9.9601147468946549e-02
7.381162324649299e+00  1.2857918906263549e-01  9.0081239673383370e-02
7.401002004008016e+00  1.2376904024578711e-01  9.5691052349542546e-02
7.420841683366734e+00  1.1927854730400447e-01  8.6300161339769116e-02
7.440681362725451e+00  1.2224249950903712e-01  8.5426698559397399e-02
7.460521042084169e+00  1.2217613421817999e-01  8.7573314597961457e-02
7.480360721442886e+00  1.2777071087496569e-01  8.2008603820683743e-02
7.500200400801604e+00  1.2542056024778203e-01  9.0995570800755501e-02
7.520040080160321e+00  1.2616879237276518e-01  8.4139552861635075e-02
7.539879759519039e+00  1.2424267612909168e-01  7.8199903291290576e-02
7.559719438877756e+00  1.2176460676180118e-01  8.9562371543262659e-02
7.579559118236474e+00  1.2395422516833926e-01  7.7505843856657708e-02
7.599398797595191e+00  1.2480475700058237e-01  7.6267634968408812e-02
7.619238476953909e+00  1.1680346200805559e-01  8.7071395515763456e-02
7.639078156312626e+00  1.2476140490399194e-01  8.1015294258137596e-02
7.658917835671343e+00  1.2857808710216040e-01  8.1356747748267011e-02
7.678757515030060e+00  1.2346252317631580e-01  8.5241274084187219e-02
7.698597194388778e+00  1.3194878282724076e-01  8.3747174732458241e-02
7.718436873747495e+00  1.2696276067794110e-01  8.5218487583208158e-02
7.738276553106213e+00  1.2213223220994464e-01  8.7833493145588679e-02
7.758116232464930e+00  1.2353800923308850e-01  8.0771316769450027e-02
7.777955911823648e+00  1.2300565732677207e-01  8.0633656383507793e-02
7.797795591182365e+00  1.2566129970354056e-01  7.6398335787063676e-02
7.817635270541083e+00  1.2830330940990109e-01  8.5085460785878558e-02
7.837474949899800e+00  1.2314464068033161e-01  9.0499069269524238e-02
7.857314629258518e+00  1.2697086239288338e-01  8.3807367505578434e-02
7.877154308617235e+00  1.3352965638860415e-01  8.9966391425451125e-02
7.896993987975953e+00  1.2948537619348566e-01  9.0302426494688920e-02
7.916833667334670e+00  1.2902908756211384e-01  9.2695753171748566e-02
7.936673346693388e+00  1.2090370376042039e-01  9.2830064429224174e-02
7.956513026052105e+00  1.2238182440760277e-01  8.4580177356886249e-02
7.976352705410823e+00  1.2634084110703717e-01  8.3881437180892124e-02
7.996192384769540e+00  1.2470021205055032e-01  8.8548848470761179e-02
8.016032064128257e+00  1.1715370984437067e-01  8.5123934484174907e-02
8.035871743486974e+00  1.1778246777299553e-01  9.5853243100030114e-02
8.055711422845691e+00  1.3056129292069946e-01  9.5630121277491431e-02
8.075551102204409e+00  1.2171560181464824e-01  8.9347960014463296e-02
8.095390781563127e+00  1.3597398702057645e-01  8.6878052951039578e-02
8.115230460921843e+00  1.1454848440321858e-01  9.1709161398527500e-02
8.135070140280561e+00  1.2797852027807086e-01  8.6015210822358537e-02
8.154909819639279e+00  1.2581424744764941e-01  8.8812972976529583e-02
8.174749498997997e+00  1.2210646506470138e-01  8.6927221395108528e-02
8.194589178356713e+00  1.2798596025948641e-01  9.0249003883680040e-02
8.214428857715431e+00  1.2207187587288712e-01  9.5504358694038990e-02
8.234268537074149e+00  1.3041698977220226e-01  9.3716548265761729e-02
8.254108216432867e+00  1.2652948263520014e-01  9.5863740711378126e-02
8.273947895791583e+00  1.1807539146589913e-01  8.5713734934628721e-02
8.293787575150301e+00  1.1422589960165648e-01  9.1327908956873247e-02
8.313627254509019e+00  1.2500794896996564e-01  8.5653768033401440e-02
8.333466933867737e+00  1.3223370804393020e-01  9.2636267518591484e-02
8.353306613226453e+00  1.2748822927373293e-01  9.2482240252956704e-02
8.373146292585171e+00  1.2693146838848465e-01  9.7476940170874160e-02
8.392985971943888e+00  1.3017694789215273e-01  9.6633179713689066e-02
8.412825651302606e+00  1.1984923325245204e-01  9.4544798171860275e-02
8.432665330661322e+00  1.3402131616172033e-01  8.8894972228620264e-02
8.452505010020040e+00  1.2250357679588647e-01  8.9182030922393879e-02
8.472344689378758e+00  1.2724012838345086e-01  8.1445857155600168e-02
8.492184368737476e+00  1.2531205774241991e-01  8.9603808366308380e-02
8.512024048096192e+00  1.2795641270260380e-01  8.4231016634398137e-02
8.531863727454910e+00  1.1756489247873096e-01  9.6777796901698243e-02
8.551703406813628e+00  1.3498593661784028e-01  9.6780036012509937e-02
8.571543086172346e+00  1.3017461834055302e-01  9.3103439989500089e-02
8.591382765531064e+00  1.3757443634951355e-01  9.0661628002407443e-02
8.611222444889778e+00  1.3468750938063664e-01  9.3410648613199504e-02
8.631062124248498e+00  1.2774104222657920e-01  1.0086217669979716e-01
8.650901803607214e+00  1.2306800053820963e-01  9.9724214228366387e-02
8.670741482965932e+00  1.1914843866911182e-01  9.0878067583092290e-02
8.690581162324650e+00  1.2800769395089476e-01  9.4103971575193304e-02
8.710420841683367e+00  1.2909861785977361e-01  8.7801060036190398e-02
8.730260521042084e+00  1.3331203335206462e-01  9.5548817369771263e-02
8.750100200400801e+00  1.2340824934671205e-01  9.7382085234195101e-02
8.769939879759519e+00  1.3221750624578207e-01  9.8328593656372754e-02
8.789779559118237e+00  1.2868114868881445e-01  8.6313864932318476e-02
8.809619238476953e+00  1.2453616942135178e-01  9.6634633525853442e-02
8.829458917835671e+00  1.3235614102109985e-01  8.9932015907494847e-02
8.849298597194389e+00  1.2989445663133276e-01  9.2511859286420958e-02
8.869138276553107e+00  1.2747162978311954e-01  9.8476215467909814e-02
8.888977955911823e+00  1.3811471590610300e-01  9.6168704664629873e-02
8.908817635270541e+00  1.3185567187289690e-01  9.4000463044005167e-02
8.928657314629259e+00  1.2833944806866521e-01  9.7994312628462588e-02
8.948496993987977e+00  1.3035956973522675e-01  1.0327460202256189e-01
8.968336673346693e+00  1.2948909896035515e-01  9.2126078947749684e-02
8.988176352705411e+00  1.3000354353846272e-01  8.8634465061656120e-02
9.008016032064129e+00  1.3148536460896135e-01  8.9715157872437307e-02
9.027855711422847e+00  1.2628177069977495e-01  9.0946341371423933e-02
9.047695390781563e+00  1.2539631446268004e-01  9.2453034211914559e-02
9.067535070140281e+00  1.3126687285628547e-01  9.8833822408944755e-02
9.087374749498998e+00  1.3897140182212042e-01  8.5662869085335866e-02
9.107214428857716e+00  1.2809426993075765e-01  9.7412816429795782e-02
9.127054108216432e+00  1.2464731529089630e-01  9.2482141486518649e-02
9.146893787575150e+00  1.2860088371048378e-01  1.0201328214502463e-01
9.166733466933868e+00  1.2745633327173436e-01  9.2378847304756928e-02
9.186573146292586e+00  1.2832260049947045e-01  9.6835624681780655e-02
9.206412825651302e+00  1.3241994828809953e-01  9.2251046156164501e-02
9.226252505010020e+00  1.2947548843111734e-01  9.3672284924273139e-02
9.246092184368738e+00  1.2723702003287962e-01  9.5920463673340645e-02
9.265931863727456e+00  1.2807334425740455e-01  9.6218229901550059e-02
9.285771543086172e+00  1.2376304152457052e-01  9.4879155323783687e-02
9.305611222444890e+00  1.2616171325173997e-01  1.0328579338048367e-01
9.325450901803608e+00  1.2347806067931798e-01  1.0053584378503738e-01
9.345290581162326e+00  1.2804700241255551e-01  1.0720179657066140e-01
9.365130260521042e+00  1.2528542449125035e-01  9.6680442810349404e-02
9.384969939879760e+00  1.2725922254286462e-01  1.0354093173213322e-01
9.404809619238478e+00  1.2937096052400143e-01  8.7852388095048056e-02
9.424649298597195e+00  1.2496136549665228e-01  1.0168176835095816e-01
9.444488977955912e+00  1.3095120822607620e-01  1.0048740593242457e-01
9.464328657314629e+00  1.3283444047012644e-01  9.6899872601557469e-02
9.484168336673347e+00  1.2640111715134864e-01  1.0238816181138972e-01
9.504008016032065e+00  1.3687168549723677e-01  1.0344017491825140e-01
9.523847695390781e+00  1.2345646180411857e-01  1.0436062977547494e-01
9.543687374749499e+00  1.2951304763756805e-01  1.0143208707539109e-01
9.563527054108217e+00  1.2413373721699156e-01  1.0247896351856564e-01
9.583366733466935e+00  1.2991929505972169e-01  9.6243970028309936e-02
9.603206412825651e+00  1.2510822887843312e-01  9.4278570194938821e-02
9.623046092184369e+00  1.2893912586512016e-01  9.8556735756244615e-02
9.642885771543087e+00  1.2819537366665279e-01  1.0096788353502222e-01
9.662725450901805e+00  1.2605961885792455e-01  1.0493012207913403e-01
9.682565130260521e+00  1.2174616298056859e-01  9.6363026206612995e-02
9.702404809619239e+00  1.3498171093005398e-01  9.8008404657174641e-02
9.722244488977957e+00  1.4224318594667607e-01  1.1546829148312344e-01
9.742084168336675e+00  1.4344528826441483e-01  9.7623075184352801e-02
9.761923847695391e+00  1.2995405035311208e-01  1.1047754842581027e-01
9.781763527054109e+00  1.3227132506385664e-01  1.0582176068089245e-01
9.801603206412826e+00  1.3025911875989268e-01  9.8366933263417958e-02
9.821442885771544e+00  1.3305421736541834e-01  1.0076305624249721e-01
9.841282565130260e+00  1.2816737052641283e-01  1.0035985796751930e-01
9.861122244488978e+00  1.2325073653058563e-01  1.0394289356231938e-01
9.880961923847696e+00  1.3275281555024909e-01  1.0854337891841730e-01
9.900801603206414e+00  1.2689647617954075e-01  9.3665832118867087e-02
9.920641282565130e+00  1.2359711785737286e-01  1.1211311857473782e-01
9.940480961923848e+00  1.4506782782043026e-01  1.0602299064073720e-01
9.960320641282566e+00  1.3211726281942945e-01  9.9529050410440495e-02
9.980160320641284e+00  1.3539091187016197e-01  1.0178296433379404e-01
1.000000000000000e+01  1.3942147818056014e-01  1.0405032902009925e-01
