# GHz S RI R 50

1.000000000000000e-01 -9.8946280473321080e-01  1.2527547736436248e-01
1.198396793587174e-01 -9.8486034754123009e-01  1.4992612753855020e-01
1.396793587174349e-01 -9.7942861976623574e-01  1.7446274127930442e-01
1.595190380761523e-01 -9.7315310032583513e-01  1.9886795161453841e-01
1.793587174348698e-01 -9.6604257922428605e-01  2.2312018877556064e-01
1.991983967935872e-01 -9.5809227056511170e-01  2.4719912176943584e-01
2.190380761523046e-01 -9.4929633095228483e-01  2.7108172762610983e-01
2.388777555110221e-01 -9.3965511251888834e-01  2.9474903954382187e-01
2.587174348697395e-01 -9.2916390171058072e-01  3.1816786697023847e-01
2.785571142284569e-01 -9.1782722155753493e-01  3.4132365475085541e-01
2.983967935871744e-01 -9.0564262408636220e-01  3.6418908374306774e-01
3.182364729458918e-01 -8.9259694981570303e-01  3.8673558659939472e-01
3.380761523046092e-01 -8.7870453001238769e-01  4.0893684986034751e-01
3.579158316633266e-01 -8.6395687719083136e-01  4.3076314284623723e-01
3.777555110220441e-01 -8.4835439451012618e-01  4.5218465873545560e-01
3.975951903807615e-01 -8.3190164771818398e-01  4.7317145223555479e-01
4.174348697394790e-01 -8.1459823507944029e-01  4.9368953551971984e-01
4.372745490981964e-01 -7.9644706248722363e-01  5.1370687326287834e-01
4.571142284569139e-01 -7.7745609219034673e-01  5.3318897277734667e-01
4.769539078156313e-01 -7.5762973194603067e-01  5.5209778746445304e-01
4.967935871743487e-01 -7.3697663673953651e-01  5.7039603551614138e-01
5.166332665330662e-01 -7.1550678815958324e-01  5.8804916059602386e-01
5.364729458917836e-01 -6.9322681225684446e-01  6.0502103142908914e-01
5.563126252505010e-01 -6.7015522038328545e-01  6.2126157136214766e-01
5.761523046092184e-01 -6.4630905505735980e-01  6.3674078743782359e-01
5.959919839679358e-01 -6.2170304701653500e-01  6.5141087023775412e-01
6.158316633266533e-01 -5.9636084480777440e-01  6.6523426311825595e-01
6.356713426853707e-01 -5.7030621652149649e-01  6.7816224324908336e-01
6.555110220440882e-01 -5.4356364822368042e-01  6.9015904807087236e-01
6.753507014028056e-01 -5.1616635196301464e-01  7.0118201835858096e-01
6.951903807615231e-01 -4.8814298478093948e-01  7.1118763016178854e-01
7.150300601202405e-01 -4.5953639092371479e-01  7.2013546119274152e-01
7.348697394789580e-01 -4.3038048094306869e-01  7.2798515206343228e-01
7.547094188376754e-01 -4.0072033133593465e-01  7.3469846145252571e-01
7.745490981963928e-01 -3.7060509081598764e-01  7.4024022507859744e-01
7.943887775551103e-01 -3.4007583939005853e-01  7.4456973099106516e-01
8.142284569138277e-01 -3.0919795429509622e-01  7.4765902673678131e-01
8.340681362725452e-01 -2.7802255961394301e-01  7.4947766737477994e-01
8.539078156312626e-01 -2.4660630239757891e-01  7.4999190913454117e-01
8.737474949899801e-01 -2.1502041671431990e-01  7.4918362152444118e-01
8.935871743486975e-01 -1.8332062219173384e-01  7.4703091725145920e-01
9.134268537074149e-01 -1.5158152320410306e-01  7.4351416235722168e-01
9.332665330661324e-01 -1.1987109180320646e-01  7.3862579900687275e-01
9.531062124248498e-01 -8.8262938047073150e-02  7.3235286479413264e-01
9.729458917835673e-01 -5.6831560247393755e-02  7.2469792858651649e-01
9.927855711422846e-01 -2.5648810588436193e-02  7.1565873927642543e-01
1.012625250501002e+00  5.2065914966428683e-03  7.0524407905697184e-01
1.032464929859719e+00  3.5660573948039606e-02  6.9346751506257209e-01
1.052304609218437e+00  6.5636172958141073e-02  6.8034776189360857e-01
1.072144288577154e+00  9.5058324438155442e-02  6.6590927203332084e-01
1.091983967935872e+00  1.2385183282085137e-01  6.5017966101530389e-01
1.111823647294589e+00  1.5194975002379832e-01  6.3319502769958591e-01
1.131663326653306e+00  1.7927739841443488e-01  6.1499681509456261e-01
1.151503006012024e+00  2.0577169256702421e-01  5.9562638844872939e-01
1.171342685370741e+00  2.3136883832340485e-01  5.7513941826778681e-01
1.191182364729459e+00  2.5600860880378479e-01  5.5358490791236303e-01
1.211022044088176e+00  2.7963124750304180e-01  5.3102820952212271e-01
1.230861723446894e+00  3.0219310519915588e-01  5.0752601372178885e-01
1.250701402805611e+00  3.2364294241420710e-01  4.8314975570264423e-01
1.270541082164329e+00  3.4394353198307714e-01  4.5796648047313332e-01
1.290380761523046e+00  3.6305385402989504e-01  4.3204545945759498e-01
1.310220440881763e+00  3.8095079329040332e-01  4.0546366313739368e-01
1.330060120240481e+00  3.9760606954283889e-01  3.7829698661227001e-01
1.349899799599198e+00  4.1300164890065610e-01  3.5061508785420609e-01
1.369739478957916e+00  4.2712440822206033e-01  3.2249705176102533e-01
1.389579158316633e+00  4.3996516242319283e-01  2.9402138498040209e-01
1.409418837675351e+00  4.5152378562434364e-01  2.6525854256205028e-01
1.429258517034068e+00  4.6180612123010445e-01  2.3628652651084442e-01
1.449098196392786e+00  4.7081725882521713e-01  2.0717513272865457e-01
1.468937875751503e+00  4.7857531280252896e-01  1.7799120022482312e-01
1.488777555110220e+00  4.8508802552760499e-01  1.4881194808416878e-01
1.508617234468938e+00  4.9038817329401924e-01  1.1969465150940391e-01
1.528456913827655e+00  4.9449506435891727e-01  9.0701826042153225e-02
1.548296593186373e+00  4.9744248091382820e-01  6.1897352683611663e-02
1.568136272545090e+00  4.9925826773143966e-01  3.3330353350760310e-02
1.587975951903808e+00  4.9998154524086136e-01  5.0562765448062498e-03
1.607815631262525e+00  4.9964967853880787e-01 -2.2876346972141370e-02
1.627655310621243e+00  4.9830376821466221e-01 -5.0420578449941071e-02
1.647494989979960e+00  4.9598075641200334e-01 -7.7539253093502097e-02
1.667334669338677e+00  4.9272662768810077e-01 -1.0419596513022994e-01
1.687174348697395e+00  4.8858610972042427e-01 -1.3035546501255565e-01
1.707014028056112e+00  4.8359922946633810e-01 -1.5598967394319738e-01
1.726853707414830e+00  4.7781453631104970e-01 -1.8106970073721892e-01
1.746693386773547e+00  4.7127734685691519e-01 -2.0557712176452514e-01
1.766533066132265e+00  4.6402710572181471e-01 -2.2948745572372034e-01
1.786372745490982e+00  4.5611581401229523e-01 -2.5278816221895145e-01
1.806212424849700e+00  4.4758195242070636e-01 -2.7546378783396697e-01
1.826052104208417e+00  4.3846863204653175e-01 -2.9750733693961556e-01
1.845891783567134e+00  4.2882064421198313e-01 -3.1890996035324848e-01
1.865731462925852e+00  4.1867557859693699e-01 -3.3966368353784521e-01
1.885571142284569e+00  4.0807646079810073e-01 -3.5976986700714547e-01
1.905410821643287e+00  3.9706163151232615e-01 -3.7922537679252988e-01
1.925250501002004e+00  3.8566636722489234e-01 -3.9803077756236588e-01
1.945090180360721e+00  3.7392827680374885e-01 -4.1619302890780524e-01
1.964929859719439e+00  3.6187526179785068e-01 -4.3371361788698576e-01
1.984769539078156e+00  3.4954931208384998e-01 -4.5059965642938732e-01
2.004609218436874e+00  3.3697645146119337e-01 -4.6686012924124848e-01
2.024448897795591e+00  3.2418595833275055e-01 -4.8250153765964288e-01
2.044288577154309e+00  3.1121097779229301e-01 -4.9753498982710959e-01
2.064128256513026e+00  2.9807203323973935e-01 -5.1197058559540398e-01
2.083967935871744e+00  2.8480120198689324e-01 -5.2582133161829125e-01
2.103807615230461e+00  2.7141391341961141e-01 -5.3909654252794026e-01
2.123647294589178e+00  2.5793961150998435e-01 -5.5181285576724359e-01
2.143486973947896e+00  2.4439492958388195e-01 -5.6397975954064383e-01
2.163326653306613e+00  2.3080263641792090e-01 -5.7561024840291075e-01
2.183166332665331e+00  2.1717783674255386e-01 -5.8672387547931026e-01
2.203006012024048e+00  2.0354137936154787e-01 -5.9732793761582470e-01
2.222845691382766e+00  1.8990633470141477e-01 -6.0743884438124740e-01
2.242685370741483e+00  1.7628902528346274e-01 -6.1707288188029963e-01
2.262525050100200e+00  1.6269951195460247e-01 -6.2624052324049762e-01
2.282364729458918e+00  1.4915325269960014e-01 -6.3495957394153868e-01
2.302204408817635e+00  1.3566515251700328e-01 -6.4324285260855685e-01
2.322044088176352e+00  1.2224354414256437e-01 -6.5110426587866999e-01
2.341883767535070e+00  1.0889269770913104e-01 -6.5855486905134597e-01
2.361723446893787e+00  9.5630635251910401e-02 -6.6561397883958295e-01
2.381563126252505e+00  8.2458170281898044e-02 -6.7228812185002607e-01
2.401402805611222e+00  6.9387713890936245e-02 -6.7859509925586992e-01
2.421242484969940e+00  5.6419090470312669e-02 -6.8454791476022059e-01
2.441082164328657e+00  4.3568190834949616e-02 -6.9015678437796635e-01
2.460921843687375e+00  3.0832477477892677e-02 -6.9543483186593880e-01
2.480761523046092e+00  1.8224662843230859e-02 -7.0039688462574912e-01
2.500601202404809e+00  5.7376897037667669e-03 -7.0505196954694893e-01
2.520440881763527e+00 -6.6158488758715087e-03 -7.0941096398047521e-01
2.540280561122244e+00 -1.8838297579203113e-02 -7.1348662983611233e-01
2.560120240480962e+00 -3.0920798418246933e-02 -7.1729072500796265e-01
2.579959919839679e+00 -4.2864342519316652e-02 -7.2082959626155740e-01
2.599799599198397e+00 -5.4665314662241393e-02 -7.2411533348747770e-01
2.619639278557114e+00 -6.6325943883713531e-02 -7.2716146928965653e-01
2.639478957915832e+00 -7.7839762281073602e-02 -7.2997276921577992e-01
2.659318637274549e+00 -8.9211796479755343e-02 -7.3256260376600324e-01
2.679158316633266e+00 -1.0043308036722134e-01 -7.3493505554687821e-01
2.698997995991984e+00 -1.1150970887166478e-01 -7.3710197814950185e-01
2.718837675350701e+00 -1.2243951125511850e-01 -7.3907369854858418e-01
2.738677354709419e+00 -1.3321929652504746e-01 -7.4085212485982010e-01
2.758517034068136e+00 -1.4385434535891556e-01 -7.4245096126465748e-01
2.778356713426854e+00 -1.5434268336259380e-01 -7.4387571675128195e-01
2.798196392785571e+00 -1.6468588790215893e-01 -7.4513175388411634e-01
2.818036072144289e+00 -1.7487964552493465e-01 -7.4623048175100981e-01
2.837875751503006e+00 -1.8493179505202736e-01 -7.4717424621714867e-01
2.857715430861723e+00 -1.9483986753476307e-01 -7.4796997760507322e-01
2.877555110220441e+00 -2.0460403102507990e-01 -7.4862586861137981e-01
2.897394789579158e+00 -2.1422697715822087e-01 -7.4914753529537359e-01
2.917234468937876e+00 -2.2371050803121123e-01 -7.4954076416064408e-01
2.937074148296593e+00 -2.3305175549706628e-01 -7.4980818553412532e-01
2.956913827655311e+00 -2.4225704396684727e-01 -7.4996161562266916e-01
2.976753507014028e+00 -2.5132539172316187e-01 -7.4999872040122928e-01
2.996593186372746e+00 -2.6025870980941646e-01 -7.4992906471820020e-01
3.016432865731463e+00 -2.6905770288878172e-01 -7.4975784599840289e-01
3.036272545090180e+00 -2.7772684063535885e-01 -7.4948728727725733e-01
3.056112224448898e+00 -2.8626121045334940e-01 -7.4912323502852873e-01
3.075951903807615e+00 -2.9467030652937642e-01 -7.4866997890913189e-01
3.095791583166333e+00 -3.0295248770885846e-01 -7.4812839922726260e-01
3.115631262525050e+00 -3.1110882866798056e-01 -7.4750537045798660e-01
3.135470941883768e+00 -3.1914231692621481e-01 -7.4680442829575466e-01
3.155310621242485e+00 -3.2705135066863728e-01 -7.4603188555979982e-01
3.175150300601203e+00 -3.3484321581078691e-01 -7.4518727622914505e-01
3.194989979959920e+00 -3.4251611638655743e-01 -7.4427189440673858e-01
3.214829659318637e+00 -3.5006972248048079e-01 -7.4329349574922698e-01
3.234669338677355e+00 -3.5751207062702489e-01 -7.4225436334893735e-01
3.254509018036072e+00 -3.6484005200956615e-01 -7.4115693398202931e-01
3.274348697394790e+00 -3.7205595971395650e-01 -7.3999960702166523e-01
3.294188376753507e+00 -3.7916303686621528e-01 -7.3879673480545305e-01
3.314028056112225e+00 -3.8616187767472265e-01 -7.3753711794780230e-01
3.333867735470942e+00 -3.9305056113321063e-01 -7.3623213751266459e-01
3.353707414829660e+00 -3.9983922569651831e-01 -7.3488002100917849e-01
3.373547094188377e+00 -4.0652552240553147e-01 -7.3348428632332308e-01
3.393386773547094e+00 -4.1311086613934334e-01 -7.3204853208606890e-01
3.413226452905812e+00 -4.1959474384710910e-01 -7.3057440066398416e-01
3.433066132264529e+00 -4.2598045777299398e-01 -7.2906090805136947e-01
3.452905811623247e+00 -4.3226965178857674e-01 -7.2751397232839810e-01
3.472745490981964e+00 -4.3846730347342855e-01 -7.2593363173689029e-01
3.492585170340682e+00 -4.4457078398747224e-01 -7.2432294817342247e-01
3.512424849699399e+00 -4.5058090863861205e-01 -7.2267998784548493e-01
3.532264529058116e+00 -4.5650020238137279e-01 -7.2101080152928598e-01
3.552104208416834e+00 -4.6233281931757358e-01 -7.1931286548701601e-01
3.571943887775551e+00 -4.6807853866692661e-01 -7.1759321882633242e-01
3.591783567134269e+00 -4.7373949033779672e-01 -7.1584847726349443e-01
3.611623246492986e+00 -4.7931559966278853e-01 -7.1408276540130389e-01
3.631462925851704e+00 -4.8481017819345001e-01 -7.1229645461113111e-01
3.651302605210421e+00 -4.9022167399574446e-01 -7.1048832550998153e-01
3.671142284569138e+00 -4.9555704488569730e-01 -7.0866316433856691e-01
3.690981963927856e+00 -5.0081006440252407e-01 -7.0682026045608326e-01
3.710821643286573e+00 -5.0598924727068684e-01 -7.0496039399409771e-01
3.730661322645290e+00 -5.1109098726346514e-01 -7.0308779975833613e-01
3.750501002004008e+00 -5.1611803792491961e-01 -7.0120050697800718e-01
3.770340681362725e+00 -5.2107246241481775e-01 -6.9929945607493638e-01
3.790180360721443e+00 -5.2595776858580312e-01 -6.9738665831702917e-01
3.810020040080160e+00 -5.3076802291868441e-01 -6.9546246487197683e-01
3.829859719438878e+00 -5.3551196231893106e-01 -6.9353000207432458e-01
3.849699398797595e+00 -5.4018793722953107e-01 -6.9158554175860454e-01
3.869539078156313e+00 -5.4479640015666009e-01 -6.8963402609285296e-01
3.889378757515030e+00 -5.4933900653244372e-01 -6.8767322759699812e-01
3.909218436873747e+00 -5.5381706351144599e-01 -6.8570815106950544e-01
3.929058116232465e+00 -5.5823121494245120e-01 -6.8373510062293819e-01
3.948897795591182e+00 -5.6258326880291654e-01 -6.8175748265734659e-01
3.968737474949900e+00 -5.6687325911871356e-01 -6.7977400470273175e-01
3.988577154308617e+00 -5.7110306504637764e-01 -6.7778419874347984e-01
4.008416833667335e+00 -5.7527541304931562e-01 -6.7579282263100660e-01
4.028256513026053e+00 -5.7938917891120612e-01 -6.7379687453131742e-01
4.048096192384770e+00 -5.8344423585562577e-01 -6.7180036024233658e-01
4.067935871743487e+00 -5.8744435500930314e-01 -6.6979745220273545e-01
4.087775551102204e+00 -5.9138999495823330e-01 -6.6779743275586134e-01
4.107615230460922e+00 -5.9527813908723615e-01 -6.6579347921072318e-01
4.127454909819639e+00 -5.9911552919883171e-01 -6.6379095664754073e-01
4.147294589178357e+00 -6.0289998509793052e-01 -6.6178676338729636e-01
4.167134268537074e+00 -6.0663231917453564e-01 -6.5978186610803524e-01
4.186973947895792e+00 -6.1031459451236358e-01 -6.5777843798223146e-01
4.206813627254509e+00 -6.1394798689424523e-01 -6.5577741453411165e-01
4.226653306613227e+00 -6.1753040958705718e-01 -6.5377635429201553e-01
4.246492985971944e+00 -6.2106543585970742e-01 -6.5177602121315048e-01
4.266332665330662e+00 -6.2455351774093049e-01 -6.4977834740530604e-01
4.286172344689379e+00 -6.2799245014751270e-01 -6.4778110408248668e-01
4.306012024048096e+00 -6.3139038718330720e-01 -6.4578833352332976e-01
4.325851703406814e+00 -6.3474037437253761e-01 -6.4379786459938271e-01
4.345691382765532e+00 -6.3804673419725044e-01 -6.4181152344142900e-01
4.365531062124249e+00 -6.4130981888818694e-01 -6.3982540354947470e-01
4.385370741482966e+00 -6.4452867451847606e-01 -6.3784537006846898e-01
4.405210420841684e+00 -6.4770651956729497e-01 -6.3586937044412262e-01
4.425050100200401e+00 -6.5084110123967920e-01 -6.3389580395999634e-01
4.444889779559118e+00 -6.5393857247850962e-01 -6.3192953359648207e-01
4.464729458917835e+00 -6.5699505686887771e-01 -6.2996457634473602e-01
4.484569138276553e+00 -6.6000869345110891e-01 -6.2800566779517331e-01
4.504408817635270e+00 -6.6298664703144872e-01 -6.2605157316112481e-01
4.524248496993988e+00 -6.6592760993900768e-01 -6.2410361684380322e-01
4.544088176352705e+00 -6.6883092011883516e-01 -6.2215875410501131e-01
4.563927855711423e+00 -6.7169503675520137e-01 -6.2022117800929610e-01
4.583767535070140e+00 -6.7452366870163971e-01 -6.1828868309036145e-01
4.603607214428858e+00 -6.7731648643010678e-01 -6.1636179941943270e-01
4.623446893787575e+00 -6.8007517806628726e-01 -6.1443819095412755e-01
4.643286573146293e+00 -6.8279809725811791e-01 -6.1252466032634378e-01
4.663126252505010e+00 -6.8548779600574905e-01 -6.1061464883102257e-01
4.682965931863728e+00 -6.8814565288792773e-01 -6.0871253827628613e-01
4.702805611222445e+00 -6.9076866500231038e-01 -6.0681478246323528e-01
4.722645290581163e+00 -6.9335939693141668e-01 -6.0492727876164942e-01
4.742484969939880e+00 -6.9591824000338542e-01 -6.0304119849596771e-01
4.762324649298598e+00 -6.9844577071900760e-01 -6.0116419827552803e-01
4.782164328657315e+00 -7.0094229184043733e-01 -5.9929312868560181e-01
4.802004008016032e+00 -7.0341180925410307e-01 -5.9742843334831464e-01
4.821843687374749e+00 -7.0584581082234454e-01 -5.9557149104666607e-01
4.841683366733467e+00 -7.0825125056945526e-01 -5.9371907817334324e-01
4.861523046092184e+00 -7.1063172325759671e-01 -5.9187842930854295e-01
4.881362725450902e+00 -7.1297936105352600e-01 -5.9004198300026123e-01
4.901202404809619e+00 -7.1530149941538679e-01 -5.8821427627775236e-01
4.921042084168337e+00 -7.1759578432076110e-01 -5.8639131088144647e-01
4.940881763527054e+00 -7.1986225497881628e-01 -5.8457750058629576e-01
4.960721442885772e+00 -7.2210387923532648e-01 -5.8276871023750987e-01
4.980561122244489e+00 -7.2431588053531137e-01 -5.8096775679576351e-01
5.000400801603207e+00 -7.2650168186702446e-01 -5.7917540550472646e-01
5.020240480961924e+00 -7.2866508086685267e-01 -5.7739107654228305e-01
5.040080160320642e+00 -7.3080182320819675e-01 -5.7561397145876858e-01
5.059919839679359e+00 -7.3291445741236017e-01 -5.7384027418130901e-01
5.079759519038077e+00 -7.3500116043058428e-01 -5.7207653220832055e-01
5.099599198396794e+00 -7.3706421900360397e-01 -5.7032278823665472e-01
5.119438877755512e+00 -7.3910362307255006e-01 -5.6857572448073124e-01
5.139278557114229e+00 -7.4112065127183901e-01 -5.6683288031692869e-01
5.159118236472946e+00 -7.4311372296589850e-01 -5.6510154772589016e-01
5.178957915831663e+00 -7.4508199182852253e-01 -5.6337584873284574e-01
5.198797595190381e+00 -7.4703445964514026e-01 -5.6165647436817046e-01
5.218637274549098e+00 -7.4895614419737477e-01 -5.5994829464200446e-01
5.238476953907816e+00 -7.5086251896138623e-01 -5.5824598847622009e-01
5.258316633266533e+00 -7.5274496807833613e-01 -5.5654831170172436e-01
5.278156312625251e+00 -7.5460968521927396e-01 -5.5486061346930715e-01
5.297995991983968e+00 -7.5644991235705783e-01 -5.5318078297917328e-01
5.317835671342686e+00 -7.5827045164868390e-01 -5.5150782659311059e-01
5.337675350701403e+00 -7.6007044846775373e-01 -5.4984226487761845e-01
5.357515030060121e+00 -7.6185337646897111e-01 -5.4818497500344032e-01
5.377354709418838e+00 -7.6361249326399006e-01 -5.4653668108946640e-01
5.397194388777556e+00 -7.6535614099202820e-01 -5.4489303109867948e-01
5.417034068136273e+00 -7.6707780600040187e-01 -5.4325894917119955e-01
5.436873747494991e+00 -7.6878141607062955e-01 -5.4163245205154564e-01
5.456713426853708e+00 -7.7046745648830517e-01 -5.4001349528450360e-01
5.476553106212426e+00 -7.7213419701451536e-01 -5.3839952924270651e-01
5.496392785571143e+00 -7.7378380822917381e-01 -5.3679590902719732e-01
5.516232464929860e+00 -7.7541729158874095e-01 -5.3519837816656324e-01
5.536072144288577e+00 -7.7703075053863846e-01 -5.3360956071056487e-01
5.555911823647295e+00 -7.7862910399815966e-01 -5.3202811832514163e-01
5.575751503006012e+00 -7.8020965895252203e-01 -5.3045163508583004e-01
5.595591182364730e+00 -7.8177085172151783e-01 -5.2888452746928316e-01
5.615430861723447e+00 -7.8331871003796105e-01 -5.2732332483790512e-01
5.635270541082165e+00 -7.8484942109477129e-01 -5.2577115979757183e-01
5.655110220440882e+00 -7.8636305822538066e-01 -5.2422570333826302e-01
5.674949899799600e+00 -7.8786214580077207e-01 -5.2268963579334726e-01
5.694789579158317e+00 -7.8934554613503094e-01 -5.2115926553682046e-01
5.714629258517035e+00 -7.9081240039186995e-01 -5.1963632879510768e-01
5.734468937875752e+00 -7.9226528339155122e-01 -5.1811855594649092e-01
5.754308617234470e+00 -7.9370355057189701e-01 -5.1660749766816549e-01
5.774148296593187e+00 -7.9512727542847950e-01 -5.1510800488430608e-01
5.793987975951904e+00 -7.9653544853563463e-01 -5.1361513782413482e-01
5.813827655310622e+00 -7.9792743028835345e-01 -5.1212632019895177e-01
5.833667334669339e+00 -7.9930986620364874e-01 -5.1064820966672764e-01
5.853507014028057e+00 -8.0067390730592114e-01 -5.0917553492105461e-01
5.873346693386774e+00 -8.0202764345456223e-01 -5.0770749845854402e-01
5.893186372745491e+00 -8.0336285292167164e-01 -5.0625014688681724e-01
5.913026052104208e+00 -8.0468773832992269e-01 -5.0479722459723164e-01
5.932865731462926e+00 -8.0600005115602336e-01 -5.0335129468167528e-01
5.952705410821643e+00 -8.0729847602487381e-01 -5.0191441991105568e-01
5.972545090180361e+00 -8.0858631706664785e-01 -5.0048294019776951e-01
5.992384769539078e+00 -8.0985591728747852e-01 -4.9906142299081618e-01
6.012224448897796e+00 -8.1111876729097776e-01 -4.9764197070280142e-01
6.032064128256513e+00 -8.1236654322059043e-01 -4.9623014544553845e-01
6.051903807615231e+00 -8.1359952712903305e-01 -4.9482819985965332e-01
6.071743486973948e+00 -8.1482383148498172e-01 -4.9343351271833824e-01
6.091583166332666e+00 -8.1603379653208663e-01 -4.9204214784680667e-01
6.111422845691383e+00 -8.1723305892462628e-01 -4.9065912758137825e-01
6.131262525050101e+00 -8.1842076026491128e-01 -4.8928160539703192e-01
6.151102204408818e+00 -8.1959869443679512e-01 -4.8791158275680957e-01
6.170941883767536e+00 -8.2076258899487908e-01 -4.8654820875662158e-01
6.190781563126253e+00 -8.2191676698060845e-01 -4.8519217795184483e-01
6.210621242484970e+00 -8.2305880700876166e-01 -4.8384216108296685e-01
6.230460921843687e+00 -8.2419093847253155e-01 -4.8249841389773607e-01
6.250300601202405e+00 -8.2531163206719704e-01 -4.8115971516368944e-01
6.270140280561122e+00 -8.2642306654976361e-01 -4.7983161495850551e-01
6.289979959919840e+00 -8.2752296925975299e-01 -4.7850557822580725e-01
6.309819639278557e+00 -8.2861131592403237e-01 -4.7718709205447085e-01
6.329659318637275e+00 -8.2969369256733638e-01 -4.7587635600925238e-01
6.349498997995992e+00 -8.3076118968695545e-01 -4.7456988282645873e-01
6.369338677354710e+00 -8.3182106830894187e-01 -4.7327137087992066e-01
6.389178356713427e+00 -8.3286941287658822e-01 -4.7197942671650589e-01
6.409018036072145e+00 -8.3390785581256843e-01 -4.7069173189798524e-01
6.428857715430862e+00 -8.3493751440176289e-01 -4.6941174891938159e-01
6.448697394789580e+00 -8.3595967014872852e-01 -4.6813762735300085e-01
6.468537074148297e+00 -8.3697003701231354e-01 -4.6686978146699581e-01
6.488376753507015e+00 -8.3797104978959969e-01 -4.6560694395282365e-01
6.508216432865732e+00 -8.3896392244080220e-01 -4.6435283606794281e-01
6.528056112224450e+00 -8.3994670648164849e-01 -4.6310138882832391e-01
6.547895791583167e+00 -8.4092102946334057e-01 -4.6185751738592901e-01
6.567735470941884e+00 -8.4188793160435049e-01 -4.6061981868187357e-01
6.587575150300601e+00 -8.4284400805930304e-01 -4.5938610350327930e-01
6.607414829659319e+00 -8.4379415485907983e-01 -4.5816122329368242e-01
6.627254509018036e+00 -8.4473053395443110e-01 -4.5693953160593187e-01
6.647094188376754e+00 -8.4566353152422957e-01 -4.5572449707514229e-01
6.666933867735471e+00 -8.4658699602464782e-01 -4.5451681506383784e-01
6.686773547094189e+00 -8.4750070107723230e-01 -4.5331331749250742e-01
6.706613226452906e+00 -8.4840839310663552e-01 -4.5211561199998335e-01
6.726452905811624e+00 -8.4930546075133051e-01 -4.5092467524384511e-01
6.746292585170341e+00 -8.5019652844575988e-01 -4.4973805015770296e-01
6.766132264529059e+00 -8.5107646332146647e-01 -4.4855947195707752e-01
6.785971943887776e+00 -8.5195241302205738e-01 -4.4738230662651463e-01
6.805811623246494e+00 -8.5282328614373626e-01 -4.4621517136250316e-01
6.825651302605211e+00 -8.5368000209891559e-01 -4.4505230038401838e-01
6.845490981963929e+00 -8.5453399987115686e-01 -4.4389086981731929e-01
6.865330661322646e+00 -8.5537760572000743e-01 -4.4273956096705097e-01
6.885170340681364e+00 -8.5621461106820396e-01 -4.4159172265701868e-01
6.905010020040081e+00 -8.5704421246067664e-01 -4.4045060596723545e-01
6.924849699398798e+00 -8.5786826072580857e-01 -4.3931470072009715e-01
6.944689378757515e+00 -8.5868236329900627e-01 -4.3818552548299400e-01
6.964529058116233e+00 -8.5949337741443277e-01 -4.3705590226591989e-01
6.984368737474950e+00 -8.6029461018933528e-01 -4.3593616386829476e-01
7.004208416833668e+00 -8.6108947681115766e-01 -4.3482066478455300e-01
7.024048096192385e+00 -8.6187849999765298e-01 -4.3370986288094998e-01
7.043887775551103e+00 -8.6265946377113012e-01 -4.3260666897307276e-01
7.063727454909820e+00 -8.6343517198457864e-01 -4.3150610974950770e-01
7.083567134268538e+00 -8.6420489475061202e-01 -4.3040948278789198e-01
7.103406813627255e+00 -8.6496806928868208e-01 -4.2932037092913555e-01
7.123246492985973e+00 -8.6572016850007649e-01 -4.2823764750026222e-01
7.143086172344690e+00 -8.6647207563803508e-01 -4.2715899568361221e-01
7.162925851703408e+00 -8.6721456259483820e-01 -4.2608278881776518e-01
7.182765531062125e+00 -8.6795111750030673e-01 -4.2501239800522017e-01
7.202605210420842e+00 -8.6868246973897478e-01 -4.2394700381071915e-01
7.222444889779560e+00 -8.6940834584765947e-01 -4.2288809703346353e-01
7.242284569138277e+00 -8.7012678798488641e-01 -4.2183443881008947e-01
7.262124248496995e+00 -8.7083941101971385e-01 -4.2078298818486576e-01
7.281963927855712e+00 -8.7154492420364327e-01 -4.1973926771842113e-01
7.301803607214429e+00 -8.7224859577468372e-01 -4.1869865183481036e-01
7.321643286573146e+00 -8.7294255958668776e-01 -4.1766270593536059e-01
7.341482965931864e+00 -8.7363298431920700e-01 -4.1663238033400424e-01
7.361322645290581e+00 -8.7431787594268873e-01 -4.1560522977140346e-01
7.381162324649299e+00 -8.7499750889442118e-01 -4.1458434762413598e-01
7.401002004008016e+00 -8.7567006604249842e-01 -4.1356687526425412e-01
7.420841683366734e+00 -8.7633777736385232e-01 -4.1255481913311703e-01
7.440681362725451e+00 -8.7700170550583179e-01 -4.1154713121190156e-01
7.460521042084169e+00 -8.7765728313780911e-01 -4.1054415977404990e-01
7.480360721442886e+00 -8.7831028694766267e-01 -4.0954390051077200e-01
7.500200400801604e+00 -8.7895635396506400e-01 -4.0855051667082853e-01
7.520040080160321e+00 -8.7959757919710180e-01 -4.0756154965813862e-01
7.539879759519039e+00 -8.8023539052726063e-01 -4.0657801916800845e-01
7.559719438877756e+00 -8.8086631282201333e-01 -4.0559755656284646e-01
7.579559118236474e+00 -8.8149223418091360e-01 -4.0462168256810666e-01
7.599398797595191e+00 -8.8211605283604833e-01 -4.0364528182420273e-01
7.619238476953909e+00 -8.8272993818346701e-01 -4.0267943978764792e-01
7.639078156312626e+00 -8.8334048205874038e-01 -4.0171701021194534e-01
7.658917835671343e+00 -8.8394910473174693e-01 -4.0075940046092962e-01
7.678757515030060e+00 -8.8455281219736681e-01 -3.9980500987789480e-01
7.698597194388778e+00 -8.8514982357036809e-01 -3.9885300585990652e-01
7.718436873747495e+00 -8.8574441558850892e-01 -3.9790590568029627e-01
7.738276553106213e+00 -8.8633004834455864e-01 -3.9696728339630916e-01
7.758116232464930e+00 -8.8691499825362563e-01 -3.9602833566449175e-01
7.777955911823648e+00 -8.8749467685080274e-01 -3.9509441876016327e-01
7.797795591182365e+00 -8.8807142356050839e-01 -3.9416690187041020e-01
7.817635270541083e+00 -8.8864091465907069e-01 -3.9323874661154262e-01
7.837474949899800e+00 -8.8920812786727133e-01 -3.9231875861009663e-01
7.857314629258518e+00 -8.8976990805844991e-01 -3.9139924166151652e-01
7.877154308617235e+00 -8.9032792928103199e-01 -3.9048838427225441e-01
7.896993987975953e+00 -8.9088192618224404e-01 -3.8957842936045839e-01
7.916833667334670e+00 -8.9143117131929361e-01 -3.8867480792999431e-01
7.936673346693388e+00 -8.9197569742656324e-01 -3.8777307542158485e-01
7.956513026052105e+00 -8.9251831554075711e-01 -3.8687633889323070e-01
7.976352705410823e+00 -8.9305308326326283e-01 -3.8598140837703665e-01
7.996192384769540e+00 -8.9358686823072730e-01 -3.8509101782918809e-01
8.016032064128257e+00 -8.9411513606522575e-01 -3.8420729687802785e-01
8.035871743486974e+00 -8.9464071494635578e-01 -3.8332449234747668e-01
8.055711422845691e+00 -8.9516174312141261e-01 -3.8244747770924337e-01
8.075551102204409e+00 -8.9568111517771465e-01 -3.8157271236828533e-01
8.095390781563127e+00 -8.9619422672475135e-01 -3.8070123337720801e-01
8.115230460921843e+00 -8.9670344507202182e-01 -3.7983567618482245e-01
8.135070140280561e+00 -8.9720893424911896e-01 -3.7897392965245763e-01
8.154909819639279e+00 -8.9771025176727648e-01 -3.7811455371571862e-01
8.174749498997997e+00 -8.9821033393606631e-01 -3.7725835585903311e-01
8.194589178356713e+00 -8.9870380843593900e-01 -3.7640653084657560e-01
8.214428857715431e+00 -8.9919601836026075e-01 -3.7555900040580414e-01
8.234268537074149e+00 -8.9968317606755077e-01 -3.7471337009911387e-01
8.254108216432867e+00 -9.0016854663498191e-01 -3.7387129985284873e-01
8.273947895791583e+00 -9.0065015477960531e-01 -3.7303541144190283e-01
8.293787575150301e+00 -9.0112833830716055e-01 -3.7220151597691947e-01
8.313627254509019e+00 -9.0160062810453723e-01 -3.7137320041693772e-01
8.333466933867737e+00 -9.0207049225191793e-01 -3.7054497650159057e-01
8.353306613226453e+00 -9.0253876351939333e-01 -3.6972229335085921e-01
8.373146292585171e+00 -9.0300283677393645e-01 -3.6890145892898113e-01
8.392985971943888e+00 -9.0346312624549763e-01 -3.6808417391833781e-01
8.412825651302606e+00 -9.0392116363157304e-01 -3.6727023704543010e-01
8.432665330661322e+00 -9.0437456819176509e-01 -3.6646043657182020e-01
8.452505010020040e+00 -9.0482505330203855e-01 -3.6565622072128368e-01
8.472344689378758e+00 -9.0527244350970359e-01 -3.6485366703569910e-01
8.492184368737476e+00 -9.0571701914716418e-01 -3.6405312690419400e-01
8.512024048096192e+00 -9.0615768873718894e-01 -3.6325738690078702e-01
8.531863727454910e+00 -9.0659644328524613e-01 -3.6246436011945393e-01
8.551703406813628e+00 -9.0702992772925251e-01 -3.6167489181768936e-01
8.571543086172346e+00 -9.0746358392938553e-01 -3.6089097241878615e-01
8.591382765531064e+00 -9.0789123886140222e-01 -3.6010603206268627e-01
8.611222444889778e+00 -9.0831993487445273e-01 -3.5932698370956873e-01
8.631062124248498e+00 -9.0874190208211447e-01 -3.5855119286091025e-01
8.650901803607214e+00 -9.0916298140164931e-01 -3.5777786872696177e-01
8.670741482965932e+00 -9.0957951603130305e-01 -3.5700581979954848e-01
8.690581162324650e+00 -9.0999404631646852e-01 -3.5624100236736483e-01
8.710420841683367e+00 -9.1040850563908415e-01 -3.5547766783636853e-01
8.730260521042084e+00 -9.1081650727531616e-01 -3.5471558362923034e-01
8.750100200400801e+00 -9.1122268875813772e-01 -3.5395626576821371e-01
8.769939879759519e+00 -9.1162414567273065e-01 -3.5320382227656627e-01
8.789779559118237e+00 -9.1202363442495671e-01 -3.5245218615140328e-01
8.809619238476953e+00 -9.1242327067904350e-01 -3.5170513703004080e-01
8.829458917835671e+00 -9.1281727742423890e-01 -3.5095726911476732e-01
8.849298597194389e+00 -9.1321002097249082e-01 -3.5021658572969488e-01
8.869138276553107e+00 -9.1360144976071922e-01 -3.4947695358519776e-01
8.888977955911823e+00 -9.1398721082733725e-01 -3.4874219716488747e-01
8.908817635270541e+00 -9.1437297234042114e-01 -3.4800712388308147e-01
8.928657314629259e+00 -9.1475274149007280e-01 -3.4727727612224768e-01
8.948496993987977e+00 -9.1513377571187071e-01 -3.4655144633344087e-01
8.968336673346693e+00 -9.1550906327443671e-01 -3.4582579670317065e-01
8.988176352705411e+00 -9.1588557361431755e-01 -3.4510473763773086e-01
9.008016032064129e+00 -9.1625652372258637e-01 -3.4438551642347870e-01
9.027855711422847e+00 -9.1662667778707829e-01 -3.4367008655706804e-01
9.047695390781563e+00 -9.1699569771503153e-01 -3.4295709171493588e-01
9.067535070140281e+00 -9.1735929901115287e-01 -3.4224783989875279e-01
9.087374749498998e+00 -9.1771994706352178e-01 -3.4153985880880605e-01
9.107214428857716e+00 -9.1808047970472428e-01 -3.4083430498751704e-01
9.127054108216432e+00 -9.1843905209140841e-01 -3.4013165451926458e-01
9.146893787575150e+00 -9.1879373209876003e-01 -3.3943566339360437e-01
9.166733466933868e+00 -9.1914571268370437e-01 -3.3873598957586065e-01
9.186573146292586e+00 -9.1949751590280671e-01 -3.3804344999253189e-01
9.206412825651302e+00 -9.1984383268094372e-01 -3.3735414625601801e-01
9.226252505010020e+00 -9.2019147680289126e-01 -3.3666666901960612e-01
9.246092184368738e+00 -9.2053281884637173e-01 -3.3598181872378147e-01
9.265931863727456e+00 -9.2087728157420656e-01 -3.3529772371588767e-01
9.285771543086172e+00 -9.2121537792489006e-01 -3.3461935672539256e-01
9.305611222444890e+00 -9.2155429377547493e-01 -3.3394188401155506e-01
9.325450901803608e+00 -9.2188853086292599e-01 -3.3326593815371186e-01
9.345290581162326e+00 -9.2222129223529581e-01 -3.3259441046228866e-01
9.365130260521042e+00 -9.2255106489849292e-01 -3.3192458474716890e-01
9.384969939879760e+00 -9.2287918488129195e-01 -3.3125820786101567e-01
9.404809619238478e+00 -9.2320639868092391e-01 -3.3059492625534276e-01
9.424649298597195e+00 -9.2353157341663583e-01 -3.2993341939171084e-01
9.444488977955912e+00 -9.2385283253176476e-01 -3.2927304263236157e-01
9.464328657314629e+00 -9.2417326058763194e-01 -3.2861798286364546e-01
9.484168336673347e+00 -9.2449233160733801e-01 -3.2796212294707811e-01
9.504008016032065e+00 -9.2480827071123617e-01 -3.2731102823241282e-01
9.523847695390781e+00 -9.2512283386520833e-01 -3.2666253816724233e-01
9.543687374749499e+00 -9.2543666945487835e-01 -3.2601631356680649e-01
9.563527054108217e+00 -9.2574540628681634e-01 -3.2537191244607166e-01
9.583366733466935e+00 -9.2605537017968065e-01 -3.2472716953015957e-01
9.603206412825651e+00 -9.2636194384380088e-01 -3.2409167026319130e-01
9.623046092184369e+00 -9.2666588564570551e-01 -3.2345640620284899e-01
9.642885771543087e+00 -9.2696920421606421e-01 -3.2281864323272264e-01
9.662725450901805e+00 -9.2726998967649821e-01 -3.2218806102788855e-01
9.682565130260521e+00 -9.2756836607616233e-01 -3.2155982209496464e-01
9.702404809619239e+00 -9.2786517586553452e-01 -3.2092943797386109e-01
9.722244488977957e+00 -9.2816185470480661e-01 -3.2030675043261775e-01
9.742084168336675e+00 -9.2845495084165852e-01 -3.1968460542185362e-01
9.761923847695391e+00 -9.2874734111090962e-01 -3.1906561518542526e-01
9.781763527054109e+00 -9.2903691465774541e-01 -3.1844816685207128e-01
9.801603206412826e+00 -9.2932497734873953e-01 -3.1783344925596418e-01
9.821442885771544e+00 -9.2961255329567782e-01 -3.1721898458043074e-01
9.841282565130260e+00 -9.2989644086647760e-01 -3.1660878512411256e-01
9.861122244488978e+00 -9.3017916812120771e-01 -3.1599853189467086e-01
9.880961923847696e+00 -9.3046101859623731e-01 -3.1539320998157966e-01
9.900801603206414e+00 -9.3073902467939940e-01 -3.1478708902990565e-01
9.920641282565130e+00 -9.3101932226702189e-01 -3.1418555404209431e-01
9.940480961923848e+00 -9.3129573903035245e-01 -3.1358733620279200e-01
9.960320641282566e+00 -9.3157138254827987e-01 -3.1299043568147084e-01
9.980160320641284e+00 -9.3184170855409620e-01 -3.1239385878220072e-01
1.000000000000000e+01 -9.3211310709139195e-01 -3.1180320909963449e-01
